2(C7 H9 F N +), I4 Pb 2-
1.0
        8.7325000763         0.0000000000         0.0000000000
        0.0000000000         9.2819004059         0.0000000000
       -3.7349164072         0.0000000000        27.4712691196
   Pb    I    F    N    H    C
    4   16    8    8   72   56
Cartesian
     3.408114648         4.971664200         6.848862152
     1.589469337         4.310236205        20.622406558
    -0.909322757         0.330713997         6.886771999
     5.906906166         8.951186408        20.584497121
     3.169419615         5.388607420         3.645986661
     1.828163794         3.893292986        23.825282458
    -0.670627781         0.747657217        10.089647898
     5.668211710         8.534243189        17.381621221
     3.533356414         4.629626397         9.940753637
     1.464227366         4.652274009        17.530514664
     7.697935497         9.270576600         3.794880923
    -2.700351939         0.011323806        23.676389016
     0.844052255         3.047247896         6.665354161
     4.153531154         6.234652510        20.805914959
     1.654739580         7.688198099         7.070280399
     3.342844350         1.593702307        20.400988720
     6.016108015         6.899793328         7.055446236
    -1.018524457         2.382107078        20.415823702
     5.215183896         2.258843125         6.680188324
    -0.217600116         7.023057281        20.791079977
     5.783638985         3.071380969        12.125817956
    -0.786055316         6.210519437        15.345451163
     5.447652926         7.712331172         1.609816604
    -0.450069257         1.569569234        25.861452516
     2.932857833         7.247307697        14.859209247
     2.064725836         2.034592709        12.612059873
     4.563517671         2.606357494        26.347694433
     0.434065998         6.675542912         1.123574687
    -2.134356939         5.152383136        18.043128790
     7.131940608         4.129517270         9.428140329
     0.898232366         0.511432933        23.163774889
     4.099351303         8.770467473         4.307494230
     2.933107355         1.153740249         9.436380622
     2.064476426         8.128160157        18.034887679
    -0.434315520         5.794690452         4.299253938
     5.431899078         3.487209954        23.172016000
    -1.319629385         4.810251834        17.828195116
     6.317213054         4.471648572         9.643074003
     0.083504812         0.169301631        23.378708563
     4.914078857         9.112598775         4.092560557
    -2.183580071         5.276120113        18.943939684
     7.181163740         4.005780293         8.527329436
     0.947455498         0.635169910        22.262963996
     4.050128171         8.646730496         5.208305124
    -2.250398641         5.950013810        17.621170158
     7.247982310         3.331886595         9.850098961
     1.014274068         1.309063607        23.585733521
     3.983309601         7.972836798         3.885535598
     4.561734104         4.982013743        13.247662714
     0.435849454         4.299886663        14.223607224
     6.669557807         0.341063540         0.487971846
    -1.671974026         8.940836866        26.983296455
     4.465013662         5.469675425        15.536678339
     0.532570007         3.812224981        11.934590780
     3.031361842         0.828725222        25.670225340
     1.966221827         8.453175184         1.801043779
    -2.002869863         2.237847639        16.286753698
     7.000453532         7.044052905        11.184515421
     0.766745291         6.878797704        24.920149981
     4.230838378         2.403102702         2.551119139
    -1.900131248         1.748672972        14.007682914
     6.897714917         7.533227710        13.463586205
     0.664006675         6.389622899        27.199220765
     4.333576994         2.892277231         0.272048355
     5.602110817         3.344602917        18.117467442
    -0.604527148         5.937297488         9.353801678
     1.894264687         7.985553120        23.089436237
     3.103318982         1.296347285         4.381832882
     4.627590822         4.578186012        17.811794765
     0.369992847         4.703714671         9.659474354
     2.868784681         9.219135938        23.395108914
     2.128798988         0.062764191         4.076160206
     2.111255372         0.819656993         9.634860728
     2.886328558         8.462243413        17.836408391
     0.387536463         5.460607196         4.100773831
     4.610046946         3.821293210        23.370495288
     2.984498214         1.320907463         8.541916350
     2.013085826         7.960992943        18.929351951
    -0.485706380         5.961857666         5.193718210
     5.483289677         3.320042740        22.277551728
     3.067209627         1.926960122         9.896222492
     1.930374154         7.354940284        17.575045808
     8.164082284         6.567910325         3.839412067
    -3.166498726         2.713990081        23.631857871
     1.671915338         6.790888832        12.702083325
     3.325668331         2.491011574        14.769185794
     0.826876497         2.149938629         1.033551235
     4.170707172         7.131961777        26.437717885
     2.117336494         7.781982426        10.618002497
     2.880247435         1.499917980        16.853266622
     0.381455341         3.141032223         3.117632062
     4.616128068         6.140868183        24.353637057
     5.220643417         0.522626726        12.139388854
    -0.223059748         8.759273680        15.331880266
     6.010648494         5.163576929         1.596245706
    -1.013064824         4.118323477        25.875023414
     4.817728735         8.806843291        14.257149675
     0.179854934         0.475057115        13.214119444
     2.678646769         4.165893088        26.949754004
     2.318936900         5.116007318         0.521515116
     4.856130397         0.616661673         9.835923039
     0.141453384         8.665238733        17.635345262
     6.375161514         5.257611876         3.899711521
    -1.377577956         4.024288530        23.571558417
     4.015073621         8.739261724         9.122933498
     0.982510159         0.542638682        18.348334803
     7.216218289         4.098311521         4.612701062
    -2.218634732         5.183588885        22.858568876
     5.714018547         3.335915044        13.447185854
    -0.716434878         5.945985085        14.024083265
     5.517273364         7.976865524         0.288448706
    -0.519689695         1.305035159        27.182820414
     5.008675867         4.425610064        13.875738357
    -0.011092198         4.856290618        13.595530762
     2.487699637         9.066559991        27.331165322
     2.509884033         0.215340139         0.140103797
     4.949919149         4.712421078        15.232818281
     0.047664520         4.569479328        12.238450838
     2.546456355         0.071470875        25.974085398
     2.451127314         9.210429531         1.497183722
     5.599992713         3.892829091        16.142117536
    -0.602409044         5.389071592        11.329151584
     1.896382790         8.533779017        25.064786144
     3.101200879         0.748121112         2.406482976
     6.285113975         2.805918550        15.669611895
    -1.287530306         6.475982133        11.801657224
     1.211261528         7.446868476        25.537291784
     3.786322141         1.835031653         1.933977336
     6.353602986         2.507969621        14.318025499
    -1.356019317         6.773930785        13.153243620
     1.142772517         7.148919824        26.888878180
     3.854811152         2.132980582         0.582390939
     5.514444184         4.188921608        17.606336814
    -0.516860515         5.092978521         9.864932306
     1.981931320         8.829872088        23.600566866
     3.015652349         0.452028594         3.870702254
     3.201605059         7.752243328        13.633991190
     1.795978499         1.529657078        13.837278748
     8.029686852         3.111293125         0.101643370
    -3.032103072         6.170607281        27.369624931
     2.393062438         7.399531228        12.592830068
     2.604521231         1.882369178        14.878439051
     0.105729397         2.758581025         1.142804491
     4.891854272         6.523319381        26.328464628
     2.682015900         7.983362273        11.353875735
     2.315567880         1.298538133        16.117392565
    -0.183224065         3.342412070         2.381758824
     5.180807623         5.939488336        25.089511114
     3.714517727         8.810379629        11.158829288
     1.283065942         0.471520777        16.312439831
     7.516774184         4.169429426         2.576805271
    -2.519190515         5.112470980        24.894463848
     4.516337496         9.177014677        12.249438713
     0.481246062         0.104885729        15.221831225
     6.714954415         4.536064474         1.486195847
    -1.717370634         4.745835932        25.985072454
     4.264565970         8.606178236        13.510370433
     0.733017699         0.675722170        13.960898686
     6.966725941         3.965228033         0.225264126
    -1.969142272         5.316672373        27.246004993
     3.975247747         0.165217581         9.812737239
     1.022336033         9.116682825        17.658531062
     7.256044164         4.806167784         3.922897321
    -2.258460606         4.475732622        23.548372618
