2(C7 H10 N +), I4 Pb 2-
1.0
        9.1436996460         0.0000000000         0.0000000000
        0.0000000000         8.6683998108         0.0000000000
        0.0000000000         0.0000000000        28.5984001160
   Pb    I    N    H    C
    4   16    8   80   56
Cartesian
     0.000000000         4.334199905        14.299200058
     4.571849823         4.334199905         0.000000000
     0.000000000         0.000000000         0.000000000
     4.571849823         0.000000000        14.299200058
     7.263206509         6.916342788        14.086427939
     1.880493137         1.752057022        14.511971325
     6.452342960         1.752057022        28.385628849
     2.691356686         6.916342788         0.212772119
     1.880493137         2.582142883         0.212772119
     7.263206509         6.086256928        28.385628849
     2.691356686         6.086256928        14.511971325
     6.452342960         2.582142883        14.086427939
     8.738633571         4.146442365        17.466473430
     0.405066075         4.521957188        11.131926686
     4.976915898         4.521957188         3.167273372
     4.166783748         4.146442365        25.431126744
     0.405066075         8.480642528        25.431126744
     8.738633571         0.187757541         3.167273372
     4.166783748         0.187757541        11.131926686
     4.976915898         8.480642528        17.466473430
     5.326204869         4.906314161        16.781540593
     3.817494777         3.762085650        11.816859522
     8.389344600         3.762085650         2.482340536
     0.754355046         4.906314161        26.116059580
     3.817494777         0.572114255        26.116059580
     5.326204869         8.096285556         2.482340536
     0.754355046         8.096285556        11.816859522
     8.389344600         0.572114255        16.781540593
     5.035736865         5.743387043        16.989423075
     4.107962781         2.925012768        11.608977041
     8.679812604         2.925012768         2.690223017
     0.463887042         5.743387043        25.908177099
     4.107962781         1.409187137        25.908177099
     5.035736865         7.259212674         2.690223017
     0.463887042         7.259212674        11.608977041
     8.679812604         1.409187137        16.989423075
     5.362414042         4.814021718        15.876830595
     3.781285604         3.854378093        12.721569521
     8.353135427         3.854378093         1.577630537
     0.790564219         4.814021718        27.020769579
     3.781285604         0.479821812        27.020769579
     5.362414042         8.188577999         1.577630537
     0.790564219         8.188577999        12.721569521
     8.353135427         0.479821812        15.876830595
     6.155236771         4.776782231        17.133158143
     2.988462875         3.891617580        11.465241973
     7.560312698         3.891617580         2.833958085
     1.583386948         4.776782231        25.764442031
     2.988462875         0.442582325        25.764442031
     6.155236771         8.225817486         2.833958085
     1.583386948         8.225817486        11.465241973
     7.560312698         0.442582325        17.133158143
     5.441214420         3.020694612        19.636633983
     3.702485226         5.647705199         8.961766133
     8.274335049         5.647705199         5.337433925
     0.869364597         3.020694612        23.260966191
     3.702485226         7.354894517        23.260966191
     5.441214420         1.313505294         5.337433925
     0.869364597         1.313505294         8.961766133
     8.274335049         7.354894517        19.636633983
     4.847916563         3.470419995        21.844716716
     4.295783083         5.197979816         6.753683400
     8.867632906         5.197979816         7.545516658
     0.276066740         3.470419995        21.052883458
     4.295783083         7.804619900        21.052883458
     4.847916563         0.863779911         7.545516658
     0.276066740         0.863779911         6.753683400
     8.867632906         7.804619900        21.844716716
     3.150909833         4.965658118        22.295828212
     5.992789813         3.702741692         6.302571904
     1.420939990         3.702741692         7.996628154
     7.722759656         4.965658118        20.601771962
     5.992789813         0.631458213        20.601771962
     3.150909833         8.036941598         7.996628154
     7.722759656         8.036941598         6.302571904
     1.420939990         0.631458213        22.295828212
     2.020849054         6.010208806        20.587930631
     7.122850864         2.658191005         8.010469485
     2.551000769         2.658191005         6.288730573
     6.592698605         6.010208806        22.309669543
     7.122850864         1.676008901        22.309669543
     2.020849054         6.992390910         6.288730573
     6.592698605         6.992390910         8.010469485
     2.551000769         1.676008901        20.587930631
     2.586350193         5.562547031        18.370955013
     6.557349453         3.105852780        10.227445103
     1.985499630         3.105852780         4.071754955
     7.158200016         5.562547031        24.526645161
     6.557349453         1.228347125        24.526645161
     2.586350193         7.440052686         4.071754955
     7.158200016         7.440052686        10.227445103
     1.985499630         1.228347125        18.370955013
     4.789890216         2.995053488        17.299087071
     4.353809430         5.673346323        11.299313045
     8.925659253         5.673346323         2.999887013
     0.218040393         2.995053488        25.598513103
     4.353809430         7.329253393        25.598513103
     4.789890216         1.339146418         2.999887013
     0.218040393         1.339146418        11.299313045
     8.925659253         7.329253393        17.299087071
     3.548349897         3.882879541        16.811226159
     5.595350021         4.785520270        11.787173957
     1.023499926         4.785520270         2.512026101
     8.120199448         3.882879541        26.086374015
     5.595350021         8.217079446        26.086374015
     3.548349897         0.451320365         2.512026101
     8.120199448         0.451320365        11.787173957
     1.023499926         8.217079446        16.811226159
     4.047915821         4.215442755        18.777136728
     5.095783553         4.452957056         9.821263388
     0.523934002         4.452957056         4.477936670
     8.619765916         4.215442755        24.120463446
     5.095783553         8.549642661        24.120463446
     4.047915821         0.118757150         4.477936670
     8.619765916         0.118757150         9.821263388
     0.523934002         8.549642661        18.777136728
     4.729121394         3.622524247        19.821550422
     4.414578252         5.045875823         8.776849694
     8.986428075         5.045875823         5.522350364
     0.157271571         3.622524247        23.076049752
     4.414578252         7.956723894        23.076049752
     4.729121394         0.711675659         5.522350364
     0.157271571         0.711675659         8.776849694
     8.986428075         7.956723894        19.821550422
     4.387146961         3.895578942        21.131358012
     4.756552685         4.772820869         7.467042104
     0.184702862         4.772820869         6.832157954
     8.958996784         3.895578942        21.766242162
     4.756552685         8.229778847        21.766242162
     4.387146961         0.438620963         6.832157954
     8.958996784         0.438620963         7.467042104
     0.184702862         8.229778847        21.131358012
     3.384997684         4.778021738        21.394462633
     5.758701690         3.890378072         7.203937483
     1.186852139         3.890378072         7.095262575
     7.956847779         4.778021738        21.503137541
     5.758701690         0.443821833        21.503137541
     3.384997684         8.224577978         7.095262575
     7.956847779         8.224577978         7.203937483
     1.186852139         0.443821833        21.394462633
     2.715678712         5.393478468        20.390659269
     6.428020934         3.274921343         8.207740847
     1.856171111         3.274921343         6.091459211
     7.287528535         5.393478468        22.506940905
     6.428020934         1.059278563        22.506940905
     2.715678712         7.609121248         6.091459211
     7.287528535         7.609121248         8.207740847
     1.856171111         1.059278563        20.390659269
     3.048509563         5.122157482        19.075132755
     6.095190083         3.546242329         9.523267361
     1.523340260         3.546242329         4.775932697
     7.620359386         5.122157482        23.822467419
     6.095190083         0.787957577        23.822467419
     3.048509563         7.880442234         4.775932697
     7.620359386         7.880442234         9.523267361
     1.523340260         0.787957577        19.075132755
     4.379832150         3.894711958        17.347789126
     4.763867768         4.773687853        11.250610990
     0.192017673         4.773687853         3.048589068
     8.951681701         3.894711958        25.549811048
     4.763867768         8.228911864        25.549811048
     4.379832150         0.439487947         3.048589068
     8.951681701         0.439487947        11.250610990
     0.192017673         8.228911864        17.347789126
