2(C7 H9 F N +), I4 Pb 2-                
   1.00000000000000     
     8.7325000762999991    0.0000000000000000    0.0000000000000000
     0.0000000000000000    9.2819004059000001    0.0000000000000000
    -3.7349164072000001    0.0000000000000000   27.4712691195999987
   Pb   I    F    N    H    C 
     4    16     8     8    72    56
Direct
  0.5256832083036559  0.4692350244685483  0.2626818435707221
  0.4773648032552454  0.5238205077049470  0.7394751517081702
  0.9993273694416815  0.9721500661158242  0.2602530267483662
  0.0024447922889093  0.0152741159081243  0.7490325005138788
  0.4538998719619575  0.5292519035406941  0.1506118735010676
  0.5834369000595258  0.5068480246690645  0.8636222084785200
  0.1067442696268230  0.0938495922033890  0.3565317368291804
  0.8767175311737057  0.9692804843947177  0.6382344067991657
  0.6519995572297648  0.3988573315548402  0.3805845432950998
  0.4125398103604672  0.5856287779891912  0.6317767794117328
  0.9276005284409047  0.9544572605124857  0.1377252185611069
  0.0627739967986509  0.0870327607968772  0.8596015756797450
  0.2068397672093482  0.2713282512654011  0.2382588522725468
  0.7107405416679322  0.7556888151984753  0.7613603367658434
  0.2972032045404928  0.7765883757999924  0.2558107233489622
  0.7208292330845368  0.2155574559605697  0.7235503166666037
  0.7992000251469561  0.6866726465690373  0.2684915193927870
  0.2031070058125262  0.2901798080389043  0.7406352538514112
  0.7045102595040926  0.1770371895463511  0.2352159663808535
  0.2186529157297656  0.7379771707927473  0.7579172901371576
  0.9248109187593954  0.2503380442651312  0.4722692318237647
  0.0887502119515670  0.6912623693784008  0.5443724991369412
  0.6907219752228122  0.8109185768250179  0.0331404278212196
  0.4653332087493299  0.2019438682669604  0.9396025677358616
  0.5350984391886658  0.7586434787889045  0.5414249293388101
  0.3986365158154767  0.2218955447467540  0.4558761143681395
  0.9605741405820170  0.2895571264230295  0.9485967035127116
  0.2651836093980243  0.6996573746415420  0.0608491137949941
  0.0224251204328486  0.6231349123681202  0.6410155781017488
  0.9718496497464524  0.4320805465481974  0.3280286574430012
  0.4337749712987766  0.1286161636716879  0.8347161553402547
  0.4711225831798072  0.9142280330925086  0.1545896440786462
  0.5054427563495812  0.0201032803229840  0.3291650107256630
  0.4724734190678393  0.9660179217606483  0.6663038392120562
  0.0307232230462086  0.5250128148014739  0.1659560072886092
  0.9509707593443804  0.4583164137576051  0.8475736199748486
  0.1021648832145393  0.5606544798549686  0.6253844118060057
  0.8843135692258501  0.5034842692831418  0.3319322025936597
  0.4365273943720211  0.2050068402139705  0.8080502138209900
  0.4155598348734942  0.8591289753618531  0.1807003718899217
  0.0740185277411641  0.6496848949315870  0.6763110687164495
  0.9731972344144836  0.4147000222514791  0.2912163770579321
  0.4476368883216030  0.1891053513234396  0.8657386390439581
  0.4973868829124813  0.8389846256918870  0.1297053408969907
  0.0151107796854544  0.7242485052561874  0.6233406379061611
  0.9426665126937304  0.3387553331277685  0.3455014774119191
  0.3231774471795323  0.0865394953669951  0.8308696194075015
  0.5716926040877944  0.9641465502456094  0.1706599772626214
  0.7357737599796168  0.4827659134106597  0.4781077441335327
  0.1875957670526883  0.4487621279617764  0.5197715824405591
  0.8271611261179723  0.0302689725933670  0.9972421935820943
  0.2566511012856730  0.0296526997575574  0.9644197561200017
  0.6779536818126771  0.5863358851396860  0.5592177899883388
  0.1868814740176533  0.3528563262588453  0.4353201900523073
  0.7758585263139309  0.1166888146381966  0.9133929158584952
  0.2270980184058158  0.9621809974385006  0.0512115438522402
  0.0150151552023112  0.2984649202650004  0.6327626188783374
  0.0192145564486445  0.7586382659497277  0.3780116223713698
  0.4136517118126178  0.7956528915995856  0.8835953958130571
  0.6323343878620886  0.2140395907825765  0.1043502950578484
  0.0557124065132507  0.1838043073158782  0.5581524946200721
  0.9995402120876246  0.8477295400825817  0.4633131794718473
  0.4825207518991392  0.7020614227660993  0.9651483373741183
  0.6544598424248171  0.2825272144336257  0.0225593612639727
  0.8866488821794765  0.4914804933759787  0.6784106911098199
  0.1291993729674034  0.5926277718110237  0.3259543063778635
  0.5212591846993901  0.9316410753320494  0.8108705108138913
  0.3613119167535435  0.1022173365017582  0.1603245029612583
  0.7865378539469530  0.6415150427169257  0.6454150488087922
  0.2132832774807632  0.4261705505173340  0.3501866835408402
  0.6609124827806152  0.0786001902923530  0.8283087567381574
  0.2561432836048108  0.9764268383505732  0.1211186846841582
  0.4325844205056512  0.0861221011642330  0.3457908883326031
  0.5373499020826624  0.0416515476378421  0.6875837031382059
  0.0002078329878488  0.6167174830862577  0.1848904858697389
  0.8453189945324291  0.4975799388439457  0.8589456173915097
  0.4374931252229657  0.9358787945076125  0.3125791328554834
  0.4343494716879076  0.8794522326334898  0.6861139356117391
  0.1052278219438074  0.5535366210832814  0.1430155985790592
  0.9354432288598820  0.4696805092591616  0.8099197742879525
  0.5432245894361417  0.0779154970832466  0.3013168283998938
  0.5469600417353679  0.9202431968120314  0.6434359315301059
  0.0955491908223504  0.4501088091728754  0.1898018974719312
  0.9657834453668699  0.3498274428703238  0.8571376095878803
  0.3740336308943036  0.6680337031453966  0.4601474876669572
  0.5331984196810097  0.3293558763175739  0.5350032949015857
  0.0300085095124086  0.1272202090146086  0.0217463543828311
  0.0635220095180303  0.8235624500269513  0.0066734164019368
  0.4195648394528432  0.7761979196480604  0.3758732013979131
  0.4967131728640128  0.2393548367123617  0.6168466965945687
  0.0030276531825886  0.2001411715697130  0.1078235395870320
  0.9696823813091741  0.7616491153494733  0.9185486974634899
  0.7927064622201110  0.0261307800522967  0.4421656591246604
  0.2012758824858531  0.9008365662425442  0.5541193041424024
  0.8093559866405158  0.6038091985214682  0.0560796342120244
  0.2738292321291383  0.3942666309254036  0.9280188070837290
  0.7546081005903472  0.9168916378844797  0.5281777909568334
  0.2144348490392395  0.0078190175302985  0.4677699017804491
  0.8272798150741306  0.5128457973872650  0.9677832903276359
  0.3665623580472303  0.4587820502251808  0.0180041739680992
  0.7134870030056518  0.0680674882819727  0.3719042244202813
  0.2284329774025318  0.9747276236272528  0.6433076298100195
  0.7895693321183100  0.5152622031645947  0.1426243612582324
  0.1968525362953290  0.5063048139010192  0.8553360171362292
  0.7108195400343553  0.8992200968445488  0.3424166528785536
  0.3200558877067481  0.1393059820825163  0.6581206137087274
  0.8768995833484456  0.3467349879299571  0.1601805550403980
  0.0666847570492796  0.6452815446838350  0.8423036514458789
  0.8988085090021826  0.3244265140599784  0.5125734255985015
  0.1062528345213917  0.6533467521947776  0.4961386445932279
  0.6586694686436120  0.8612821446096940  0.9858185938061719
  0.4540301576398003  0.1615409406176532  0.9878619850559398
  0.7946053058512849  0.4393018600903834  0.5126975576074012
  0.1568427296052990  0.5168334394504572  0.4881998511624483
  0.7376512825500372  0.9781215063643598  0.9710505982903522
  0.3303476772264269  0.0753331760253317  0.9951917255063921
  0.7629059175805808  0.4993337005742295  0.5574089838257887
  0.1473168434984501  0.4624739842422715  0.4408863911495758
  0.7085501184309104  0.0234488459125215  0.9221125088054282
  0.3136417135224049  0.0415692920108892  0.0428896878087123
  0.8483576246130242  0.4560354183995047  0.6010653320136463
  0.0961149348365235  0.5505379208994300  0.4013607571842707
  0.5892411889503613  0.9605265095807833  0.8888940025536831
  0.4148759769236650  0.0913503953489689  0.0836297150427194
  0.9477689847113608  0.3400747694519776  0.5989836899241369
  0.0488292241975008  0.6877639445029042  0.4101603978586901
  0.5084115444382045  0.8499770421210109  0.9065816614061388
  0.5412673676482633  0.1797528051289963  0.0750980142940170
  0.9743103433571288  0.2738020017755087  0.5560748649621478
  0.0443590710498241  0.7415588996360493  0.4570306757670953
  0.5470651808253560  0.7928631362551417  0.9538463649822935
  0.5598794960489112  0.2129343023836059  0.0274995668988984
  0.8726326243459245  0.5545615649184936  0.6444342239728674
  0.1139452344815523  0.5003940879524300  0.3503259353952823
  0.5600381350329343  0.0183576225433874  0.8369347973533673
  0.3685838026377917  0.0281605152699524  0.1296280129089943
  0.5480359153183345  0.8084769731425808  0.4972473011496408
  0.3749537663097752  0.1673040764174166  0.4991995589179755
  0.9485477914384530  0.3307184714507006  0.9950395362579234
  0.2178112753695890  0.6449402063652795  0.0153759988329594
  0.4597158761226018  0.7567899150012095  0.4564991629311851
  0.4599729195623425  0.2373992876330585  0.5388366153254460
  0.9901430192854487  0.2321994615985060  0.0303972856311383
  0.1070740720361870  0.7314517229460157  0.9885833275187323
  0.4845369471844386  0.8093605974647030  0.4115540471857193
  0.4447402215904876  0.1822038430431826  0.5842616870316388
  0.9694806420424303  0.2733796955581094  0.0778730848193651
  0.0517504980505520  0.6932156514309150  0.9410625515341114
  0.6012038977888062  0.9077221853489192  0.4087258402171758
  0.3459936288453172  0.0653473227011682  0.5884002021411178
  0.9096235040750853  0.4083125627961415  0.0881463154309980
  0.1184862719647360  0.5756557983626687  0.9182471483047513
  0.7007699398803566  0.9503319059060255  0.4499834138265802
  0.2694484143203092  0.9929035789236913  0.5474436762423411
  0.8632856478693862  0.5008786917230468  0.0486766613113327
  0.2248000194031713  0.4874769729320770  0.9467683669714294
  0.6795948128071650  0.8923185409888542  0.4947408865578408
  0.2808331888665937  0.0499686947881358  0.5009959397030500
  0.8788084186467213  0.4593479775395962  0.0011183065240746
  0.2796053274800713  0.5237234324940933  0.9952398596507265
  0.6380120198157553  0.9756319285481215  0.3631518767834571
  0.3338276975703254  0.0348336740229028  0.6399493928183911
  0.8893018773347138  0.4459009682010022  0.1392327903535320
  0.0898187898585458  0.5492930539784748  0.8657208557430883
 
 -0.19804378E-03 -0.17501215E-02 -0.29554926E-02
 -0.10005867E-02  0.13276179E-02  0.15435255E-02
 -0.15656058E-02  0.14452697E-03 -0.10698242E-02
 -0.13849592E-02  0.10487799E-02 -0.29242903E-02
  0.16683367E-02  0.13793615E-02 -0.12874723E-02
 -0.43224849E-03 -0.24283230E-02 -0.21065270E-03
  0.38711532E-03 -0.11944211E-03  0.13484978E-02
  0.92597017E-04 -0.10109156E-02 -0.22814038E-02
  0.77386884E-03 -0.28136511E-03 -0.80406380E-03
  0.88754788E-03 -0.15399573E-02  0.15647232E-02
  0.30617161E-02  0.23653128E-02  0.91278746E-03
 -0.16847767E-02  0.59585595E-03 -0.93541469E-03
  0.41217468E-02  0.91343269E-03 -0.12754680E-02
  0.72792730E-03 -0.90389389E-03  0.14853528E-02
 -0.64375282E-03 -0.33993786E-02  0.24143652E-02
 -0.17339981E-02  0.18790858E-02  0.91234284E-03
  0.36489183E-03  0.10333345E-02 -0.12001750E-02
  0.20803631E-02 -0.12888929E-02  0.20664842E-02
  0.83879554E-03  0.10449271E-02  0.13566804E-02
 -0.13344733E-02 -0.77287489E-02 -0.42299466E-02
 -0.32416191E-02 -0.68816957E-03  0.44198020E-02
 -0.14484088E-02  0.80207064E-02  0.67551679E-02
  0.55492665E-04 -0.45521467E-02  0.56564500E-02
  0.73198622E-02  0.24051653E-02 -0.90838081E-02
 -0.85837352E-02  0.73217936E-02 -0.33989610E-02
 -0.18633788E-02 -0.76658484E-02  0.86716217E-03
 -0.68824447E-03  0.96397279E-02  0.28822051E-04
 -0.40710834E-02  0.20934185E-02  0.13301929E-02
  0.91162281E-02  0.10527239E-01 -0.28942151E-02
 -0.50857097E-02  0.13706571E-02 -0.43666027E-02
 -0.56411221E-02  0.40860913E-02  0.31620090E-02
  0.72625962E-02 -0.15647554E-02 -0.15883785E-02
 -0.39207709E-02 -0.92183762E-02 -0.87576263E-03
 -0.20079907E-02  0.10368224E-02 -0.63066808E-02
 -0.24274395E-02  0.22485984E-02 -0.16212192E-02
 -0.56323687E-02  0.22533195E-02  0.20517292E-02
  0.88219040E-02  0.15175006E-01 -0.56631483E-02
 -0.67885406E-02 -0.59923828E-03  0.16392079E-01
 -0.73978177E-02  0.45622258E-03 -0.13807206E-01
  0.10831141E-01 -0.14677721E-01  0.52518944E-02
  0.22897453E-01  0.30887578E-01 -0.55193974E-02
 -0.12595216E-01 -0.42823095E-02  0.18131319E-02
 -0.31431249E-01  0.53267635E-02  0.79382037E-02
  0.36877894E-01  0.38281931E-03  0.26066917E-01
  0.41463533E-02  0.21397043E-02 -0.14775493E-01
  0.64611991E-02 -0.84598474E-02 -0.15129394E-01
 -0.21046578E-02  0.20883081E-01 -0.17813871E-03
 -0.14228961E-01 -0.29049301E-02 -0.17852436E-02
  0.28873797E-02  0.12278895E-01  0.14423712E-01
 -0.15980470E-01 -0.12927257E-01 -0.60508950E-02
 -0.21051410E-01  0.15404088E-01 -0.10496355E-02
 -0.10165192E-01  0.22678491E-01 -0.52699313E-02
  0.68371811E-02  0.65229686E-02  0.83567079E-02
 -0.24427778E-01 -0.14176569E-01 -0.37889441E-02
 -0.18873980E-01 -0.22950863E-02 -0.42769409E-02
 -0.45777441E-02  0.20341640E-01  0.52848178E-02
  0.89509078E-02  0.34252905E-02 -0.10466329E-01
 -0.18829185E-01  0.28538780E-02  0.22126907E-01
  0.11366329E-01  0.10481364E-01 -0.94062083E-02
  0.33694436E-02  0.13019658E-01 -0.15533615E-01
 -0.80817780E-02 -0.12103856E-02 -0.63832448E-02
  0.80624820E-02  0.90187958E-02 -0.43512791E-02
 -0.12299302E-01  0.29404918E-02  0.29012704E-01
 -0.13141053E-03  0.86092685E-02 -0.10519645E-01
  0.15795518E-01  0.56861160E-02  0.97919182E-02
  0.19142159E-01 -0.21172505E-01 -0.20972524E-01
 -0.87129457E-02  0.11903364E-01 -0.10222665E-01
  0.68915185E-02 -0.19776255E-02 -0.10423107E-01
  0.34178118E-02 -0.18765059E-01  0.10009633E-01
 -0.11763982E-01 -0.48743157E-02  0.14811422E-01
  0.80016148E-02  0.56503158E-02 -0.60470733E-03
  0.10520764E-02 -0.10765384E-01  0.13833732E-01
 -0.10487951E-01 -0.15547219E-01 -0.11018071E-01
  0.34390613E-02 -0.16275973E-02 -0.11960991E-01
 -0.45924202E-02  0.52946490E-02  0.16436413E-03
 -0.17225131E-01  0.32550562E-03 -0.14059233E-01
  0.20977914E-01 -0.25215662E-01 -0.63705766E-02
 -0.45552056E-03  0.12821733E-01 -0.18969995E-01
  0.76045735E-02 -0.12281745E-02 -0.11742239E-01
 -0.24492868E-01 -0.14021249E-01  0.22242142E-02
 -0.45107608E-02  0.19096232E-01  0.26489303E-01
 -0.11960007E-02 -0.12709588E-01 -0.32296736E-02
 -0.16550992E-03  0.21981192E-01  0.10361405E-01
  0.78768037E-02  0.14978913E-01  0.59045654E-03
  0.16782074E-01 -0.10390904E-01  0.11029408E-01
 -0.96724767E-02  0.16227752E-01  0.11141965E-01
  0.13657686E-01 -0.69429483E-02 -0.11082999E-01
  0.21783784E-01 -0.66770851E-02 -0.14126202E-01
  0.18963653E-01 -0.29504973E-01  0.14664779E-01
 -0.36365020E-02  0.37853073E-02  0.75933458E-02
  0.16309190E-01  0.58435256E-02 -0.11131695E-01
  0.73740832E-02 -0.11124964E-01  0.68438016E-02
 -0.14763948E-01 -0.62945692E-02  0.91078033E-03
  0.23013694E-02  0.15557708E-01  0.60046923E-02
 -0.12461991E-01 -0.22230627E-01  0.27523990E-01
 -0.22780955E-01  0.34745906E-02  0.18322156E-01
  0.50940050E-03 -0.61724797E-02  0.15692085E-01
  0.18660163E-01  0.27498169E-02  0.39630885E-03
  0.45349564E-03  0.57046504E-02 -0.72836277E-02
 -0.45515415E-02  0.10770490E-01 -0.13658206E-02
 -0.25893191E-01  0.96162360E-02  0.21986765E-01
  0.20127231E-01 -0.18674501E-01  0.33191333E-03
 -0.54976856E-03 -0.62028414E-02 -0.28499451E-03
  0.67565999E-02  0.16953811E-01 -0.10969285E-01
  0.24325833E-02  0.40354284E-01  0.81898240E-02
  0.68983182E-02  0.71985433E-02  0.43957905E-02
 -0.11434011E-01  0.67155063E-02  0.88812354E-02
 -0.17484141E-01 -0.95955960E-02 -0.89235376E-02
 -0.82718248E-02  0.16885908E-02  0.67297347E-02
 -0.73401070E-02  0.41161292E-03  0.54456078E-02
  0.66422036E-02 -0.99300588E-02  0.74854495E-02
  0.27303170E-02 -0.26705553E-03 -0.16939470E-02
 -0.75544849E-02 -0.43019019E-02  0.52974824E-02
 -0.30739901E-02 -0.18839213E-02  0.21588276E-02
 -0.14015550E-02  0.26407439E-03  0.45500411E-02
  0.53012332E-02 -0.20850219E-02 -0.10670056E-01
 -0.47448398E-03 -0.57334269E-02  0.53337762E-02
  0.31848859E-02 -0.28738073E-02 -0.15828783E-03
  0.23621784E-03 -0.64984172E-02  0.38796734E-02
 -0.23087370E-02  0.32921535E-02 -0.44909560E-02
 -0.28543186E-02 -0.46456025E-02  0.29675387E-02
 -0.46882917E-03 -0.63299082E-03 -0.76006979E-03
 -0.49154973E-02 -0.13119994E-02 -0.56093142E-02
 -0.18005867E-02  0.44995427E-02  0.22872021E-02
  0.10425234E-02 -0.94602205E-03 -0.25491377E-03
 -0.53683512E-06 -0.22063665E-02  0.38435588E-02
  0.36082214E-02 -0.52336940E-02 -0.15861793E-02
 -0.12522165E-01  0.72868573E-02 -0.67313477E-03
  0.55425095E-03  0.34034207E-02 -0.29091135E-02
  0.58677500E-03 -0.22524934E-02  0.21655246E-02
  0.37986382E-02 -0.32146645E-02  0.47384576E-03
 -0.18872262E-02  0.11889949E-03 -0.75870708E-02
  0.91244870E-02  0.29182376E-02  0.54198638E-02
  0.38559738E-02 -0.39292830E-02 -0.58763787E-02
 -0.17001904E-02  0.32835500E-02  0.63389937E-02
  0.46732316E-02 -0.20070884E-03 -0.31123881E-02
  0.25577155E-02 -0.59372293E-05 -0.52798741E-02
  0.16209772E-02 -0.22409093E-02  0.13095900E-01
  0.26339462E-02  0.94633490E-02  0.83693617E-02
 -0.10700665E-02 -0.58465909E-02  0.17718877E-02
 -0.70249880E-02  0.28303745E-02  0.76754954E-02
  0.22612668E-02  0.42699098E-02  0.82573617E-02
 -0.89169375E-02 -0.82007697E-03  0.55298155E-02
  0.14244450E-02  0.12771229E-02  0.19617867E-02
  0.97495043E-02  0.32964160E-02  0.29276623E-02
 -0.44774891E-02  0.75312678E-02  0.14039152E-02
  0.17860794E-02 -0.44609122E-02 -0.91425353E-03
  0.68697189E-02  0.10537317E-01  0.33356019E-03
  0.75826142E-02  0.44875014E-02  0.71163105E-02
 -0.46604494E-02  0.94339772E-02 -0.28776913E-02
 -0.34833217E-02 -0.18864424E-03  0.27034921E-02
  0.19374478E-02  0.63169784E-02  0.51963581E-03
  0.41473052E-02  0.12241700E-02  0.11468877E-01
  0.15195417E-02  0.21599167E-02 -0.44110499E-02
  0.64733980E-02  0.25289409E-02 -0.21730321E-02
  0.13759253E-02  0.73160333E-02  0.22161694E-02
  0.20114945E-03 -0.56081682E-03  0.95870620E-02
  0.29603695E-02  0.17231203E-02 -0.32462684E-02
 -0.65135450E-03  0.79089725E-03  0.41381444E-02
  0.56554742E-02  0.26535819E-02 -0.40072130E-03
 -0.22737851E-02 -0.62823193E-03  0.34410033E-02
  0.35832671E-02  0.21368073E-02  0.14049748E-02
 -0.52314747E-02 -0.13842751E-02  0.33524237E-02
 -0.80746547E-02  0.51911118E-02 -0.37221238E-02
 
           1
   1.00000000000000     
  0.10000000E+01  0.00000000E+00  0.00000000E+00  0.00000000E+00
  0.52561452E+00  0.46904647E+00  0.26257426E+00
  0.47727425E+00  0.52396354E+00  0.73953134E+00
  0.99913143E+00  0.97216564E+00  0.26021408E+00
  0.22406655E-02  0.15387108E-01  0.74892605E+00
  0.45407088E+00  0.52940051E+00  0.15056501E+00
  0.58338412E+00  0.50658641E+00  0.86361454E+00
  0.10680959E+00  0.93836724E-01  0.35658082E+00
  0.87669262E+00  0.96917157E+00  0.63815136E+00
  0.65207566E+00  0.39882702E+00  0.38055527E+00
  0.41266581E+00  0.58546287E+00  0.63183374E+00
  0.92796535E+00  0.95471209E+00  0.13775845E+00
  0.62566501E-01  0.87096956E-01  0.85956753E+00
  0.20729191E+00  0.27142666E+00  0.23821242E+00
  0.71084703E+00  0.75559143E+00  0.76141441E+00
  0.29716707E+00  0.77622214E+00  0.25589861E+00
  0.72064487E+00  0.21575990E+00  0.72358353E+00
  0.79922312E+00  0.68678397E+00  0.26844783E+00
  0.20337741E+00  0.29004095E+00  0.74071048E+00
  0.70462744E+00  0.17714977E+00  0.23526535E+00
  0.21843424E+00  0.73714450E+00  0.75776331E+00
  0.92450852E+00  0.25026390E+00  0.47243012E+00
  0.88689520E-01  0.69212649E+00  0.54461840E+00
  0.69081640E+00  0.81042814E+00  0.33346332E-01
  0.46603001E+00  0.20220299E+00  0.93927190E+00
  0.53406256E+00  0.75943230E+00  0.54130120E+00
  0.39843663E+00  0.22106965E+00  0.45590768E+00
  0.96049578E+00  0.29059568E+00  0.94859775E+00
  0.26473812E+00  0.69988291E+00  0.60897535E-01
  0.23424003E-01  0.62426908E+00  0.64091022E+00
  0.97119928E+00  0.43222822E+00  0.32786971E+00
  0.43317821E+00  0.12905639E+00  0.83483126E+00
  0.47192953E+00  0.91405945E+00  0.15453182E+00
  0.50498014E+00  0.19110124E-01  0.32913313E+00
  0.47214529E+00  0.96612963E+00  0.66607427E+00
  0.30420005E-01  0.52525507E+00  0.16589699E+00
  0.95035771E+00  0.45855918E+00  0.84764831E+00
  0.10308695E+00  0.56228938E+00  0.62517826E+00
  0.88379139E+00  0.50341971E+00  0.33252890E+00
  0.43546527E+00  0.20505599E+00  0.80754761E+00
  0.41688193E+00  0.85754765E+00  0.18089155E+00
  0.76554692E-01  0.65301262E+00  0.67611015E+00
  0.97178313E+00  0.41423866E+00  0.29128238E+00
  0.44416114E+00  0.18967924E+00  0.86602760E+00
  0.50201578E+00  0.83902587E+00  0.13065422E+00
  0.15355557E-01  0.72447903E+00  0.62280279E+00
  0.94317086E+00  0.33784390E+00  0.34495074E+00
  0.32293366E+00  0.88789367E-01  0.83086313E+00
  0.57003538E+00  0.96383358E+00  0.17059499E+00
  0.73632897E+00  0.48408880E+00  0.47863279E+00
  0.18567156E+00  0.44736939E+00  0.51955132E+00
  0.82473409E+00  0.31928556E-01  0.99720399E+00
  0.25540499E+00  0.32096002E-01  0.96422792E+00
  0.67886675E+00  0.58703865E+00  0.55952199E+00
  0.18402514E+00  0.35132899E+00  0.43518227E+00
  0.77363059E+00  0.11644155E+00  0.91323723E+00
  0.22665608E+00  0.96437254E+00  0.51403920E-01
  0.15877215E-01  0.29883395E+00  0.63238163E+00
  0.17402833E-01  0.75894573E+00  0.37881708E+00
  0.41480688E+00  0.79678212E+00  0.88325299E+00
  0.63247839E+00  0.21544228E+00  0.10378485E+00
  0.54687542E-01  0.18367390E+00  0.55792013E+00
  0.39573963E-03  0.84870119E+00  0.46315479E+00
  0.48156400E+00  0.70237822E+00  0.96620445E+00
  0.65428101E+00  0.28345475E+00  0.22176429E-01
  0.88861015E+00  0.49209310E+00  0.67876713E+00
  0.13106491E+00  0.59034672E+00  0.32519087E+00
  0.52010227E+00  0.93292350E+00  0.81049839E+00
  0.36193882E+00  0.10200427E+00  0.15994508E+00
  0.78708508E+00  0.63949336E+00  0.64577942E+00
  0.21216673E+00  0.42564541E+00  0.35072584E+00
  0.66181937E+00  0.79208936E-01  0.82828674E+00
  0.25647914E+00  0.97526701E+00  0.12162226E+00
  0.43121185E+00  0.84447097E-01  0.34538981E+00
  0.53755750E+00  0.41476196E-01  0.68714830E+00
  0.99968449E+00  0.61728791E+00  0.18489647E+00
  0.84312757E+00  0.49761501E+00  0.85843384E+00
  0.43979622E+00  0.93316215E+00  0.31234723E+00
  0.43400196E+00  0.88083360E+00  0.68542340E+00
  0.10591584E+00  0.55340430E+00  0.14258816E+00
  0.93267306E+00  0.46816991E+00  0.81000074E+00
  0.54312046E+00  0.79972859E-01  0.30228108E+00
  0.54677280E+00  0.91887391E+00  0.64331837E+00
  0.95691555E-01  0.45247699E+00  0.19017907E+00
  0.96669465E+00  0.35144122E+00  0.85715910E+00
  0.37612714E+00  0.66691422E+00  0.46054898E+00
  0.53226425E+00  0.33110420E+00  0.53540888E+00
  0.31399964E-01  0.12647220E+00  0.21342915E-01
  0.65796642E-01  0.82284308E+00  0.61591991E-02
  0.42196477E+00  0.77301916E+00  0.37640702E+00
  0.49641496E+00  0.23976265E+00  0.61712311E+00
  0.47219854E-02  0.20077073E+00  0.10741833E+00
  0.97063337E+00  0.76045055E+00  0.91879782E+00
  0.79102995E+00  0.25452625E-01  0.44219881E+00
  0.20163291E+00  0.90251270E+00  0.55433788E+00
  0.80835743E+00  0.60141415E+00  0.57081553E-01
  0.27150574E+00  0.39464097E+00  0.92868576E+00
  0.75491075E+00  0.91622664E+00  0.52874901E+00
  0.21657788E+00  0.81152733E-02  0.46778433E+00
  0.82721835E+00  0.51346040E+00  0.96751815E+00
  0.36601987E+00  0.45994243E+00  0.17954456E-01
  0.71086417E+00  0.69103508E-01  0.37270458E+00
  0.23074301E+00  0.97271570E+00  0.64331971E+00
  0.78950194E+00  0.51459393E+00  0.14261399E+00
  0.19745548E+00  0.50813136E+00  0.85493672E+00
  0.71122561E+00  0.90356773E+00  0.34271478E+00
  0.32091429E+00  0.14008153E+00  0.65828063E+00
  0.87572849E+00  0.34745849E+00  0.16050385E+00
  0.64543634E-01  0.64424775E+00  0.84197882E+00
  0.89796604E+00  0.32460844E+00  0.51281840E+00
  0.10549707E+00  0.65339110E+00  0.49633687E+00
  0.65954664E+00  0.86021231E+00  0.98609108E+00
  0.45431645E+00  0.16151217E+00  0.98780032E+00
  0.79382268E+00  0.43883839E+00  0.51289039E+00
  0.15652432E+00  0.51663047E+00  0.48827844E+00
  0.73756162E+00  0.97814996E+00  0.97121623E+00
  0.33078862E+00  0.75108543E-01  0.99480332E+00
  0.76293462E+00  0.49871600E+00  0.55760314E+00
  0.14767910E+00  0.46216437E+00  0.44088063E+00
  0.70863757E+00  0.22748729E-01  0.92225374E+00
  0.31330741E+00  0.41923977E-01  0.42726210E-01
  0.84807696E+00  0.45553492E+00  0.60117336E+00
  0.96049413E-01  0.55046972E+00  0.40133309E+00
  0.58859096E+00  0.96038516E+00  0.88868981E+00
  0.41470539E+00  0.91835161E-01  0.83712973E-01
  0.94788440E+00  0.33997285E+00  0.59897441E+00
  0.48889003E-01  0.68752624E+00  0.41030031E+00
  0.50880004E+00  0.84941318E+00  0.90652392E+00
  0.53982292E+00  0.18053787E+00  0.75073511E-01
  0.97432852E+00  0.27416867E+00  0.55596897E+00
  0.44459981E-01  0.74131622E+00  0.45710950E+00
  0.54750756E+00  0.79251680E+00  0.95386361E+00
  0.55954526E+00  0.21294711E+00  0.27223385E-01
  0.87376190E+00  0.55487597E+00  0.64463152E+00
  0.11429531E+00  0.49997076E+00  0.35011203E+00
  0.55994213E+00  0.18711381E-01  0.83716555E+00
  0.36907050E+00  0.28138892E-01  0.12951472E+00
  0.54824661E+00  0.80847633E+00  0.49705510E+00
  0.37534328E+00  0.16706265E+00  0.49967627E+00
  0.94897972E+00  0.33173802E+00  0.99534419E+00
  0.21771632E+00  0.64431031E+00  0.15440498E-01
  0.45903091E+00  0.75709485E+00  0.45677856E+00
  0.46036043E+00  0.23785931E+00  0.53913720E+00
  0.98920799E+00  0.23211111E+00  0.30598580E-01
  0.10726774E+00  0.73158932E+00  0.98865474E+00
  0.48569899E+00  0.80971574E+00  0.41166062E+00
  0.44424934E+00  0.18301524E+00  0.58431279E+00
  0.96967094E+00  0.27289909E+00  0.77839804E-01
  0.52542375E-01  0.69435091E+00  0.94107469E+00
  0.60218301E+00  0.90820565E+00  0.40898489E+00
  0.34541514E+00  0.66363707E-01  0.58829545E+00
  0.90926670E+00  0.40829224E+00  0.88244727E-01
  0.11871623E+00  0.57633637E+00  0.91826606E+00
  0.70142343E+00  0.95046379E+00  0.45040090E+00
  0.26955375E+00  0.99313628E+00  0.54728311E+00
  0.86399312E+00  0.50115115E+00  0.48597559E-01
  0.22499209E+00  0.48826518E+00  0.94684904E+00
  0.67976711E+00  0.89225812E+00  0.49508987E+00
  0.28112165E+00  0.50154338E-01  0.50087777E+00
  0.87879826E+00  0.45943319E+00  0.12689419E-02
  0.28024672E+00  0.52400932E+00  0.99522527E+00
  0.63780521E+00  0.97556425E+00  0.36327714E+00
  0.33425991E+00  0.35063886E-01  0.64000054E+00
  0.88875499E+00  0.44575183E+00  0.13935482E+00
  0.88836173E-01  0.54985233E+00  0.86558536E+00
 -0.67896883E-04 -0.18794713E-03 -0.10760911E-03
 -0.91274439E-04  0.14422078E-03  0.55885524E-04
 -0.19563808E-03  0.15424842E-04 -0.38060854E-04
 -0.20295329E-03  0.11315365E-03 -0.10627167E-03
  0.17045137E-03  0.14931482E-03 -0.46909367E-04
 -0.51064081E-04 -0.25966522E-03 -0.77024785E-05
  0.64634529E-04 -0.12131518E-04  0.47652026E-04
 -0.25567730E-04 -0.10744632E-03 -0.82267973E-04
  0.78653643E-04 -0.30306359E-04 -0.28566374E-04
  0.12599256E-03 -0.16576695E-03  0.57218723E-04
  0.36509894E-03  0.25787035E-03  0.32622975E-04
 -0.20710836E-03  0.65041284E-04 -0.34455824E-04
  0.45139228E-03  0.99340053E-04 -0.46573190E-04
  0.10307124E-03 -0.98714896E-04  0.54241285E-04
 -0.35977999E-04 -0.36497648E-03  0.87867695E-04
 -0.18239536E-03  0.19910857E-03  0.32579085E-04
  0.23785948E-04  0.10881472E-03 -0.43059875E-04
  0.27125185E-03 -0.13911403E-03  0.75603690E-04
  0.11824021E-03  0.11156323E-03  0.49286008E-04
 -0.21915170E-03 -0.83312780E-03 -0.15398286E-03
 -0.29833613E-03 -0.83301695E-04  0.16623377E-03
 -0.69915895E-04  0.86520808E-03  0.25724603E-03
  0.98639122E-04 -0.49849787E-03  0.21084739E-03
  0.69203715E-03  0.25868185E-03 -0.34335068E-03
 -0.10104126E-02  0.80273766E-03 -0.13546832E-03
 -0.19477195E-03 -0.83046135E-03  0.43609379E-04
 -0.79395638E-04  0.10418645E-02  0.70516742E-05
 -0.45734668E-03  0.24483023E-03  0.47095905E-04
  0.94744974E-03  0.10872846E-02 -0.11482615E-03
 -0.63748119E-03  0.17009837E-03 -0.15828052E-03
 -0.61279710E-03  0.43036712E-03  0.11541507E-03
  0.79163479E-03 -0.16530684E-03 -0.52462552E-04
 -0.43177287E-03 -0.10125522E-02 -0.30155478E-04
 -0.32106369E-03  0.18081395E-03 -0.22602393E-03
 -0.26619811E-03  0.25159824E-03 -0.67139036E-04
 -0.62290785E-03  0.23391370E-03  0.77447140E-04
  0.10342165E-02  0.16083072E-02 -0.23908599E-03
 -0.20611803E-03 -0.98729636E-04  0.62592557E-03
 -0.10547807E-02  0.61589188E-04 -0.39251111E-03
  0.11397444E-02 -0.17279380E-02  0.21250839E-03
  0.24389540E-02  0.33373622E-02 -0.17012004E-03
 -0.14190963E-02 -0.27808573E-03  0.47856744E-04
 -0.34705201E-02  0.48087843E-03  0.18774055E-03
  0.44855129E-02  0.20468655E-03  0.93285365E-03
  0.47053743E-03  0.44516644E-03 -0.54882858E-03
  0.35018117E-03 -0.83269821E-03 -0.52378386E-03
 -0.62525003E-04  0.23178953E-02 -0.37216583E-04
 -0.17457377E-02 -0.10794070E-03 -0.91673595E-04
  0.51354599E-03  0.14539426E-02  0.47800197E-03
 -0.21082952E-02 -0.12962977E-02 -0.24004089E-03
 -0.21802011E-02  0.17483104E-02  0.31251542E-04
 -0.11054972E-02  0.24363243E-02 -0.15469163E-03
  0.70432968E-03  0.84907333E-03  0.36904402E-03
 -0.28129683E-02 -0.15964841E-02 -0.13889243E-03
 -0.21630234E-02 -0.18329875E-03 -0.90029851E-04
 -0.46175367E-03  0.19744572E-02  0.25623165E-03
  0.97491038E-03  0.25095637E-03 -0.34612737E-03
 -0.17497873E-02  0.35979078E-03  0.70513236E-03
  0.10719027E-02  0.10589611E-02 -0.33294502E-03
  0.41726241E-03  0.14253861E-02 -0.53202063E-03
 -0.92735692E-03 -0.15063058E-03 -0.19383315E-03
  0.89065387E-03  0.88696334E-03 -0.15556346E-03
 -0.93240700E-03  0.40560290E-03  0.10411156E-02
 -0.42485983E-03  0.77134951E-03 -0.30463642E-03
  0.20511270E-02  0.52464443E-03  0.35097410E-03
  0.17501607E-02 -0.22156868E-02 -0.82190706E-03
 -0.13004570E-02  0.10984306E-02 -0.37457117E-03
  0.74893944E-03 -0.47749394E-03 -0.30848485E-03
  0.51626348E-03 -0.18383373E-02  0.36583209E-03
 -0.93208511E-03 -0.59127193E-03  0.54274368E-03
  0.84363869E-03  0.80017844E-03  0.17810335E-04
  0.49970266E-03 -0.11984721E-02  0.50042462E-03
 -0.13015353E-02 -0.17217914E-02 -0.40693137E-03
 -0.54167322E-04 -0.20495597E-03 -0.54107648E-03
 -0.64409321E-03  0.87350590E-03  0.64996022E-04
 -0.23745440E-02  0.19263172E-03 -0.49916153E-03
  0.22610077E-02 -0.26756986E-02 -0.24146758E-03
 -0.74189329E-03  0.11137195E-02 -0.70930060E-03
  0.29631927E-03 -0.43949649E-03 -0.28033541E-03
 -0.26980424E-02 -0.12691850E-02  0.38440357E-04
 -0.16397264E-03  0.19013341E-02  0.10417130E-02
  0.45724230E-04 -0.15416390E-02 -0.17985776E-03
  0.27249133E-03  0.21689832E-02  0.36558400E-03
  0.92996216E-03  0.16207910E-02  0.49773579E-04
  0.17532786E-02 -0.16123356E-02  0.42330302E-03
 -0.97733009E-03  0.16591320E-02  0.45891802E-03
  0.11990341E-02 -0.56411528E-03 -0.40911027E-03
  0.23805412E-02 -0.78286882E-03 -0.50309047E-03
  0.24065659E-02 -0.30678010E-02  0.37626631E-03
 -0.39423001E-03  0.44587116E-03  0.27720321E-03
  0.16660104E-02  0.73838468E-03 -0.42366698E-03
  0.10463790E-02 -0.12677211E-02  0.23974450E-03
 -0.15627420E-02 -0.50009336E-03 -0.10841749E-03
  0.61874144E-03  0.19071027E-02  0.25561085E-03
 -0.10107432E-02 -0.23322640E-02  0.10383216E-02
 -0.22114812E-02  0.17249627E-04  0.53954165E-03
  0.22283291E-03 -0.72629107E-03  0.53240792E-03
  0.20128168E-02  0.32958941E-03  0.35208406E-05
 -0.10940323E-03  0.38032859E-03 -0.31112474E-03
 -0.44766463E-03  0.11149589E-02 -0.73279762E-05
 -0.25885660E-02  0.81081608E-03  0.80578161E-03
  0.23104133E-02 -0.17576740E-02 -0.33572352E-04
 -0.23413806E-04 -0.66167289E-03  0.25789394E-04
  0.62443335E-03  0.21672358E-02 -0.32334538E-03
  0.90011716E-03  0.39936213E-02  0.20491750E-03
  0.86224762E-03  0.91597023E-03  0.14862961E-03
 -0.11750558E-02  0.66909037E-03  0.31247669E-03
 -0.22561564E-02 -0.11983192E-02 -0.43198377E-03
 -0.81468168E-03  0.17435156E-03  0.23377805E-03
 -0.68402646E-03  0.13483236E-04  0.19972145E-03
  0.88816601E-03 -0.10424964E-02  0.27066382E-03
  0.27683199E-03 -0.62184868E-04 -0.65067436E-04
 -0.75046086E-03 -0.47087583E-03  0.19665877E-03
 -0.31664568E-03 -0.16644276E-03  0.75877418E-04
 -0.13051299E-03  0.10296583E-04  0.17010106E-03
  0.42681098E-03 -0.22336082E-03 -0.38669748E-03
  0.16149445E-04 -0.62782775E-03  0.20449591E-03
  0.33839236E-03 -0.30469710E-03 -0.11752915E-04
  0.92924160E-04 -0.69877160E-03  0.13149520E-03
 -0.34986457E-03  0.37074000E-03 -0.17203055E-03
 -0.26917884E-03 -0.50520362E-03  0.11583910E-03
 -0.11573317E-03 -0.30506173E-04 -0.24134516E-04
 -0.71949420E-03 -0.18208994E-03 -0.20611618E-03
 -0.15610267E-03  0.50932628E-03  0.92355798E-04
  0.72254409E-04 -0.78420562E-04 -0.23999457E-04
  0.82839145E-04 -0.30726391E-03  0.14842992E-03
  0.41941163E-03 -0.50565425E-03 -0.61244266E-04
 -0.14248532E-02  0.82140793E-03 -0.34539645E-04
  0.82041345E-05  0.38233227E-03 -0.11403376E-03
  0.73759383E-04 -0.22730030E-03  0.68856751E-04
  0.46496700E-03 -0.36619338E-03  0.21573461E-04
 -0.29932758E-03  0.12837845E-04 -0.26106494E-03
  0.11584243E-02  0.35087631E-03  0.20018333E-03
  0.31022682E-03 -0.44871506E-03 -0.22034157E-03
 -0.79424040E-04  0.36245395E-03  0.21562886E-03
  0.48146011E-03 -0.50585495E-04 -0.12786265E-03
  0.11391043E-03 -0.13357205E-04 -0.18389338E-03
  0.33341255E-03 -0.28055822E-03  0.46999181E-03
  0.44610267E-03  0.10414819E-02  0.32212717E-03
 -0.79367559E-04 -0.65997812E-03  0.75957691E-04
 -0.60113190E-03  0.37370460E-03  0.28248150E-03
  0.40644299E-03  0.49487857E-03  0.29775676E-03
 -0.93693955E-03 -0.95471710E-04  0.17377964E-03
  0.20803655E-03  0.15707606E-03  0.73498274E-04
  0.11781985E-02  0.35852193E-03  0.12650808E-03
 -0.47274838E-03  0.78873859E-03  0.60625168E-04
  0.16717333E-03 -0.48525181E-03 -0.31789617E-04
  0.75968132E-03  0.11429639E-02  0.24658697E-04
  0.95259016E-03  0.44544638E-03  0.25821269E-03
 -0.60856534E-03  0.10073813E-02 -0.10098643E-03
 -0.35884328E-03 -0.16152832E-04  0.11000543E-03
  0.24433602E-03  0.65275977E-03 -0.35627457E-05
  0.64442772E-03  0.13394000E-03  0.42007716E-03
  0.80956462E-04  0.18027758E-03 -0.16839179E-03
  0.72526148E-03  0.25442907E-03 -0.81960561E-04
  0.16120291E-03  0.79435231E-03  0.85226723E-04
  0.18124645E-03 -0.95549776E-04  0.35064012E-03
  0.31293711E-03  0.21596382E-03 -0.12651235E-03
  0.18871049E-04  0.50444114E-04  0.14503092E-03
  0.63715313E-03  0.29672995E-03 -0.25953858E-04
 -0.28641922E-03  0.37481165E-05  0.13509813E-03
  0.49176404E-03  0.21241401E-03  0.53757920E-04
 -0.56126386E-03 -0.15996640E-03  0.11570622E-03
 -0.95693513E-03  0.53760869E-03 -0.11858004E-03
  0.00000000E+00  0.00000000E+00  0.00000000E+00
  0.00000000E+00  0.00000000E+00  0.00000000E+00
  0.00000000E+00  0.00000000E+00  0.00000000E+00
  0.00000000E+00  0.00000000E+00  0.00000000E+00
  0.00000000E+00  0.00000000E+00  0.00000000E+00
  0.00000000E+00  0.00000000E+00  0.00000000E+00
  0.00000000E+00  0.00000000E+00  0.00000000E+00
  0.00000000E+00  0.00000000E+00  0.00000000E+00
  0.00000000E+00  0.00000000E+00  0.00000000E+00
  0.00000000E+00  0.00000000E+00  0.00000000E+00
  0.00000000E+00  0.00000000E+00  0.00000000E+00
  0.00000000E+00  0.00000000E+00  0.00000000E+00
  0.00000000E+00  0.00000000E+00  0.00000000E+00
  0.00000000E+00  0.00000000E+00  0.00000000E+00
  0.00000000E+00  0.00000000E+00  0.00000000E+00
  0.00000000E+00  0.00000000E+00  0.00000000E+00
  0.00000000E+00  0.00000000E+00  0.00000000E+00
  0.00000000E+00  0.00000000E+00  0.00000000E+00
  0.00000000E+00  0.00000000E+00  0.00000000E+00
  0.00000000E+00  0.00000000E+00  0.00000000E+00
  0.00000000E+00  0.00000000E+00  0.00000000E+00
  0.00000000E+00  0.00000000E+00  0.00000000E+00
  0.00000000E+00  0.00000000E+00  0.00000000E+00
  0.00000000E+00  0.00000000E+00  0.00000000E+00
  0.00000000E+00  0.00000000E+00  0.00000000E+00
  0.00000000E+00  0.00000000E+00  0.00000000E+00
  0.00000000E+00  0.00000000E+00  0.00000000E+00
  0.00000000E+00  0.00000000E+00  0.00000000E+00
  0.00000000E+00  0.00000000E+00  0.00000000E+00
  0.00000000E+00  0.00000000E+00  0.00000000E+00
  0.00000000E+00  0.00000000E+00  0.00000000E+00
  0.00000000E+00  0.00000000E+00  0.00000000E+00
  0.00000000E+00  0.00000000E+00  0.00000000E+00
  0.00000000E+00  0.00000000E+00  0.00000000E+00
  0.00000000E+00  0.00000000E+00  0.00000000E+00
  0.00000000E+00  0.00000000E+00  0.00000000E+00
  0.00000000E+00  0.00000000E+00  0.00000000E+00
  0.00000000E+00  0.00000000E+00  0.00000000E+00
  0.00000000E+00  0.00000000E+00  0.00000000E+00
  0.00000000E+00  0.00000000E+00  0.00000000E+00
  0.00000000E+00  0.00000000E+00  0.00000000E+00
  0.00000000E+00  0.00000000E+00  0.00000000E+00
  0.00000000E+00  0.00000000E+00  0.00000000E+00
  0.00000000E+00  0.00000000E+00  0.00000000E+00
  0.00000000E+00  0.00000000E+00  0.00000000E+00
  0.00000000E+00  0.00000000E+00  0.00000000E+00
  0.00000000E+00  0.00000000E+00  0.00000000E+00
  0.00000000E+00  0.00000000E+00  0.00000000E+00
  0.00000000E+00  0.00000000E+00  0.00000000E+00
  0.00000000E+00  0.00000000E+00  0.00000000E+00
  0.00000000E+00  0.00000000E+00  0.00000000E+00
  0.00000000E+00  0.00000000E+00  0.00000000E+00
  0.00000000E+00  0.00000000E+00  0.00000000E+00
  0.00000000E+00  0.00000000E+00  0.00000000E+00
  0.00000000E+00  0.00000000E+00  0.00000000E+00
  0.00000000E+00  0.00000000E+00  0.00000000E+00
  0.00000000E+00  0.00000000E+00  0.00000000E+00
  0.00000000E+00  0.00000000E+00  0.00000000E+00
  0.00000000E+00  0.00000000E+00  0.00000000E+00
  0.00000000E+00  0.00000000E+00  0.00000000E+00
  0.00000000E+00  0.00000000E+00  0.00000000E+00
  0.00000000E+00  0.00000000E+00  0.00000000E+00
  0.00000000E+00  0.00000000E+00  0.00000000E+00
  0.00000000E+00  0.00000000E+00  0.00000000E+00
  0.00000000E+00  0.00000000E+00  0.00000000E+00
  0.00000000E+00  0.00000000E+00  0.00000000E+00
  0.00000000E+00  0.00000000E+00  0.00000000E+00
  0.00000000E+00  0.00000000E+00  0.00000000E+00
  0.00000000E+00  0.00000000E+00  0.00000000E+00
  0.00000000E+00  0.00000000E+00  0.00000000E+00
  0.00000000E+00  0.00000000E+00  0.00000000E+00
  0.00000000E+00  0.00000000E+00  0.00000000E+00
  0.00000000E+00  0.00000000E+00  0.00000000E+00
  0.00000000E+00  0.00000000E+00  0.00000000E+00
  0.00000000E+00  0.00000000E+00  0.00000000E+00
  0.00000000E+00  0.00000000E+00  0.00000000E+00
  0.00000000E+00  0.00000000E+00  0.00000000E+00
  0.00000000E+00  0.00000000E+00  0.00000000E+00
  0.00000000E+00  0.00000000E+00  0.00000000E+00
  0.00000000E+00  0.00000000E+00  0.00000000E+00
  0.00000000E+00  0.00000000E+00  0.00000000E+00
  0.00000000E+00  0.00000000E+00  0.00000000E+00
  0.00000000E+00  0.00000000E+00  0.00000000E+00
  0.00000000E+00  0.00000000E+00  0.00000000E+00
  0.00000000E+00  0.00000000E+00  0.00000000E+00
  0.00000000E+00  0.00000000E+00  0.00000000E+00
  0.00000000E+00  0.00000000E+00  0.00000000E+00
  0.00000000E+00  0.00000000E+00  0.00000000E+00
  0.00000000E+00  0.00000000E+00  0.00000000E+00
  0.00000000E+00  0.00000000E+00  0.00000000E+00
  0.00000000E+00  0.00000000E+00  0.00000000E+00
  0.00000000E+00  0.00000000E+00  0.00000000E+00
  0.00000000E+00  0.00000000E+00  0.00000000E+00
  0.00000000E+00  0.00000000E+00  0.00000000E+00
  0.00000000E+00  0.00000000E+00  0.00000000E+00
  0.00000000E+00  0.00000000E+00  0.00000000E+00
  0.00000000E+00  0.00000000E+00  0.00000000E+00
  0.00000000E+00  0.00000000E+00  0.00000000E+00
  0.00000000E+00  0.00000000E+00  0.00000000E+00
  0.00000000E+00  0.00000000E+00  0.00000000E+00
  0.00000000E+00  0.00000000E+00  0.00000000E+00
  0.00000000E+00  0.00000000E+00  0.00000000E+00
  0.00000000E+00  0.00000000E+00  0.00000000E+00
  0.00000000E+00  0.00000000E+00  0.00000000E+00
  0.00000000E+00  0.00000000E+00  0.00000000E+00
  0.00000000E+00  0.00000000E+00  0.00000000E+00
  0.00000000E+00  0.00000000E+00  0.00000000E+00
  0.00000000E+00  0.00000000E+00  0.00000000E+00
  0.00000000E+00  0.00000000E+00  0.00000000E+00
  0.00000000E+00  0.00000000E+00  0.00000000E+00
  0.00000000E+00  0.00000000E+00  0.00000000E+00
  0.00000000E+00  0.00000000E+00  0.00000000E+00
  0.00000000E+00  0.00000000E+00  0.00000000E+00
  0.00000000E+00  0.00000000E+00  0.00000000E+00
  0.00000000E+00  0.00000000E+00  0.00000000E+00
  0.00000000E+00  0.00000000E+00  0.00000000E+00
  0.00000000E+00  0.00000000E+00  0.00000000E+00
  0.00000000E+00  0.00000000E+00  0.00000000E+00
  0.00000000E+00  0.00000000E+00  0.00000000E+00
  0.00000000E+00  0.00000000E+00  0.00000000E+00
  0.00000000E+00  0.00000000E+00  0.00000000E+00
  0.00000000E+00  0.00000000E+00  0.00000000E+00
  0.00000000E+00  0.00000000E+00  0.00000000E+00
  0.00000000E+00  0.00000000E+00  0.00000000E+00
  0.00000000E+00  0.00000000E+00  0.00000000E+00
  0.00000000E+00  0.00000000E+00  0.00000000E+00
  0.00000000E+00  0.00000000E+00  0.00000000E+00
  0.00000000E+00  0.00000000E+00  0.00000000E+00
  0.00000000E+00  0.00000000E+00  0.00000000E+00
  0.00000000E+00  0.00000000E+00  0.00000000E+00
  0.00000000E+00  0.00000000E+00  0.00000000E+00
  0.00000000E+00  0.00000000E+00  0.00000000E+00
  0.00000000E+00  0.00000000E+00  0.00000000E+00
  0.00000000E+00  0.00000000E+00  0.00000000E+00
  0.00000000E+00  0.00000000E+00  0.00000000E+00
  0.00000000E+00  0.00000000E+00  0.00000000E+00
  0.00000000E+00  0.00000000E+00  0.00000000E+00
  0.00000000E+00  0.00000000E+00  0.00000000E+00
  0.00000000E+00  0.00000000E+00  0.00000000E+00
  0.00000000E+00  0.00000000E+00  0.00000000E+00
  0.00000000E+00  0.00000000E+00  0.00000000E+00
  0.00000000E+00  0.00000000E+00  0.00000000E+00
  0.00000000E+00  0.00000000E+00  0.00000000E+00
  0.00000000E+00  0.00000000E+00  0.00000000E+00
  0.00000000E+00  0.00000000E+00  0.00000000E+00
  0.00000000E+00  0.00000000E+00  0.00000000E+00
  0.00000000E+00  0.00000000E+00  0.00000000E+00
  0.00000000E+00  0.00000000E+00  0.00000000E+00
  0.00000000E+00  0.00000000E+00  0.00000000E+00
  0.00000000E+00  0.00000000E+00  0.00000000E+00
  0.00000000E+00  0.00000000E+00  0.00000000E+00
  0.00000000E+00  0.00000000E+00  0.00000000E+00
  0.00000000E+00  0.00000000E+00  0.00000000E+00
  0.00000000E+00  0.00000000E+00  0.00000000E+00
  0.00000000E+00  0.00000000E+00  0.00000000E+00
  0.00000000E+00  0.00000000E+00  0.00000000E+00
  0.00000000E+00  0.00000000E+00  0.00000000E+00
  0.00000000E+00  0.00000000E+00  0.00000000E+00
  0.00000000E+00  0.00000000E+00  0.00000000E+00
  0.00000000E+00  0.00000000E+00  0.00000000E+00
  0.00000000E+00  0.00000000E+00  0.00000000E+00
  0.00000000E+00  0.00000000E+00  0.00000000E+00
  0.00000000E+00  0.00000000E+00  0.00000000E+00
  0.00000000E+00  0.00000000E+00  0.00000000E+00
