2(C7 H10 N +), I4 Pb 2-                 
   1.00000000000000     
     9.1436996460000000    0.0000000000000000    0.0000000000000000
     0.0000000000000000    8.6683998108000004    0.0000000000000000
     0.0000000000000000    0.0000000000000000   28.5984001160000005
   Pb   I    N    H    C 
     4    16     8    80    56
Direct
  0.0045813898860408  0.5254293149924946  0.5120028833778362
  0.4873726889549768  0.4175437011871891  0.0202773435516143
  0.0134552773068582  0.9200376465928050  0.9768394686077464
  0.4831335035776937  0.0512219047844202  0.4897174665002731
  0.7878169556147991  0.8199413247926967  0.4946777957238062
  0.2270858138703099  0.2755975507335539  0.5019324478777125
  0.6883025262209653  0.1415055266012460  0.9876600763730717
  0.3032660247440496  0.7664431780327784  0.0140524235224443
  0.1639324024941316  0.2434332870794088  0.0112072924473504
  0.7789386366395396  0.6324099100977535  0.9954577331870277
  0.2734516907034165  0.7222421552641461  0.5119566735133642
  0.7639189987061580  0.3043214430698056  0.4875110677838990
  0.9673178363447450  0.4856149869512976  0.6155118882157495
  0.0513032282038806  0.5921104753077782  0.3873659034657962
  0.5842342600824678  0.5264568292408137  0.1289135878946217
  0.4203041139107656  0.4846271098060687  0.9094978220148278
  0.9978907146370343  0.9451696248247520  0.8738427267276948
  0.9853385219061843  0.9944481783590321  0.1107329928218217
  0.4823862805102939  0.0460866590421378  0.3828832345590129
  0.5381310600778748  0.0993835797402475  0.6027620613555204
  0.5267170269116719  0.4953132322050001  0.5871771795488143
  0.6451874801280612  0.6164815405460939  0.4161981505555389
  0.9282441535318264  0.3838646109774450  0.0945926183734759
  0.0504590854510473  0.5315114980847473  0.9006661795074368
  0.4152687787385887  0.8570544452989677  0.9022806446117119
  0.6075434677591698  0.9623663413704183  0.0846107045202166
  0.0442827531545319  0.0090693853973759  0.4089162577404287
  0.9160104758016742  0.0800482045579751  0.5756098778956279
  0.5900874680563291  0.3936612906397546  0.5913015897831830
  0.7537414862026502  0.6151836996913418  0.4024250200863072
  0.8254980757875983  0.4056004478062286  0.1097086848410290
  0.0301537852004831  0.6265762677378689  0.8785062162101185
  0.4210163335217184  0.7469727790939590  0.8840372590397915
  0.6365866295648119  0.0117478101228337  0.0512184459478936
  0.9808777439017931  0.0229057183764331  0.4388330519302708
  0.8192262372631003  0.1078896255988193  0.5932847153465938
  0.5589389314097227  0.5469739214726705  0.5568787782274753
  0.6075233384030890  0.7284701088089973  0.4093877308820473
  0.9578807961835427  0.2778038677929550  0.1098616512827086
  0.0157456075009506  0.5673909815664259  0.9336570469991916
  0.3166584284701228  0.9123482927507677  0.8953972104416390
  0.7040033069864176  0.9306543717686337  0.1000160092828374
  0.1533734161583922  0.0178492805949028  0.4182594801960126
  0.9717388785334719  0.1810046871735358  0.5682467459162978
  0.4226745210118898  0.4610984052314077  0.5823274319221657
  0.6623034820638952  0.6133186260520652  0.4523456940635247
  0.9134827367440258  0.3568038036813473  0.0593533577712442
  0.1581534202198754  0.5037106918947239  0.9020743465856288
  0.4179156075517312  0.8202584676001474  0.9379465683168157
  0.5405378064733831  0.8707375911951076  0.0757114194979062
  0.0352243487652040  0.9001384683935808  0.3924578593469818
  0.8821252411937444  0.0389704946420499  0.5430888483310118
  0.5697248810807063  0.3586226103434443  0.6977220295669061
  0.3769939168252157  0.5097022371082239  0.3264413342196286
  0.9372478323599449  0.7095364675476935  0.1677193263123337
  0.0277513884217173  0.2578140610167849  0.7972398255197944
  0.3726868545539740  0.8090702615931937  0.8197595426289395
  0.5525156870874278  0.2676618233169982  0.1873281930521986
  0.1413976657126782  0.2365820820372838  0.2948851943495788
  0.9131466338161416  0.8279613751943462  0.6804562990139622
  0.4371532190068627  0.3502671734290209  0.7716367195667210
  0.4456278784522275  0.5071744268409589  0.2398480439408761
  0.9747777733775782  0.6898426758289420  0.2562557387925335
  0.9626072916432610  0.3445751627102654  0.7225926222625243
  0.4165719398565213  0.8573784771612051  0.7331231819130302
  0.5145730691650443  0.1875522576552656  0.2722366465867622
  0.0587185451744956  0.1582497428553907  0.2151343056521041
  0.9968694014667510  0.8735719292552500  0.7628702702132280
  0.2351558221673956  0.5238378386231671  0.7903445146270889
  0.6943299013680929  0.4682150097719648  0.2188286709524975
  0.1609782032101801  0.4988863043387382  0.2854296719030395
  0.7885054004245796  0.5666691999938435  0.7100093981229358
  0.5518652831761072  0.0866633389323363  0.7079511963280765
  0.3972370644714079  0.9321554494511644  0.2890160407136867
  0.8406075534240536  0.0200268784862942  0.2015001191781239
  0.1998520086167248  0.0681294534584762  0.7743932724840346
  0.1342718804659638  0.6981068710624634  0.7260718641763311
  0.8798543865659358  0.3748322653589072  0.2766406286061037
  0.2693531222657714  0.3051570040737095  0.2313482848756093
  0.6558908984157286  0.6683549895308928  0.7797392906859937
  0.6854282088821141  0.2525851373442092  0.7649048900613974
  0.3225357397412004  0.7696454216005687  0.2252645284973835
  0.6994486877091177  0.9052044844313936  0.2722149980774338
  0.2879401338271816  0.2194124826936909  0.7128789899007901
  0.2817834354947670  0.7314926576594915  0.6546680523778506
  0.8153279865169974  0.3978599782184991  0.3614777100567060
  0.2304757433695844  0.3306042361398321  0.1452861319712334
  0.7447643311928828  0.5877260841690479  0.8621664388573951
  0.6827155700404189  0.1765472978516827  0.8496631858132304
  0.3924023956721392  0.8214471754923620  0.1427071974769145
  0.7938425941176375  0.9629016659973600  0.3546819187883218
  0.1745781500702747  0.2057833654948237  0.6292026932691224
  0.5030982683261310  0.7091023300311700  0.6156614697019119
  0.5745042129057483  0.3882372906732479  0.4223971307891111
  0.9638395963085703  0.6260525627246558  0.0988624276806167
  0.0407430106365638  0.2932247479857840  0.8797292590431056
  0.6299979812555750  0.8991478080493792  0.9062868827520414
  0.5758255841969837  0.1887513808264849  0.1066573290700925
  0.0944866286819913  0.2311933059618966  0.3772017712062792
  0.9262077201861187  0.8620288216703124  0.6035100798988768
  0.6505680472508935  0.5891745874692168  0.6377137927719481
  0.4388218482883830  0.5212369639021683  0.4036203672219226
  0.1208446969651350  0.5145122697451517  0.0778608098598384
  0.8828403324685206  0.3563357653721649  0.9118180557383361
  0.5271124219327868  0.0664805138705834  0.9138843167658675
  0.4154479787942867  0.0777753883567754  0.0931405985779234
  0.9093827515374215  0.2019668056521474  0.3933886951085279
  0.0932689455808531  0.9312793195287270  0.5795970191566411
  0.4353036547876041  0.5530629977745598  0.6690291324536251
  0.5935075711962873  0.4586734324216086  0.3490074695359887
  0.0795472082551949  0.5192697032542631  0.1535310830677140
  0.8970218808472233  0.4239709888462510  0.8367541626185250
  0.5328082560728736  0.9912058386331561  0.8414148530567153
  0.4921727151890803  0.0401152219891010  0.1618198439602331
  0.9657358563617895  0.1037335988659158  0.3273843420133815
  0.0455164275976094  0.0069562360596051  0.6494047149238004
  0.4793564600719390  0.4391099158387570  0.7019118192547581
  0.4874631389038139  0.4829187641850365  0.3145831092119354
  0.0085662650423093  0.6262781233628160  0.1836031827729894
  0.9507686162052306  0.3532926272761861  0.7955028364785176
  0.4503627491658922  0.9010414682575967  0.8097530087162419
  0.5140773306439841  0.1498977328459808  0.1959873198382474
  0.0521993468516980  0.1507651134878876  0.2903547551011277
  0.9881816178850479  0.9240364679593570  0.6877315677939269
  0.4032169267067089  0.4334157681373440  0.7447707967574405
  0.5183637307342288  0.4757114942620173  0.2679756485575778
  0.0327464900342289  0.6188591816276842  0.2320859318304735
  0.9098198894237860  0.3999448837232841  0.7514507901792299
  0.4648876947245167  0.9332807686499448  0.7608986546704687
  0.4911839021583030  0.1076904737053052  0.2433577082114401
  0.9988561315509111  0.1139766516067262  0.2454361797841995
  0.0380047992328159  0.9410680426984487  0.7335478765904813
  0.2871347274188837  0.5290403759019303  0.7556859488769684
  0.6651768631611031  0.4507477696040897  0.2551942258992921
  0.1333945978820159  0.5058930745770215  0.2485527404134367
  0.8095471472395136  0.5146835359915530  0.7442168515244965
  0.5445332924946311  0.0615398050463386  0.7450155742699492
  0.4207182653148109  0.9696380658447137  0.2538055082394827
  0.8722352700267508  0.0327793563640685  0.2385199124174255
  0.1463525571900491  0.0473079913433375  0.7402076176589086
  0.2320533778734621  0.6298751589422330  0.7214488628763477
  0.7702461363486410  0.4083085003474565  0.2872975298218791
  0.2010043545197185  0.4009283673912386  0.2174542013669796
  0.7421509286903097  0.5769800343207064  0.7852224404528613
  0.6253484130260867  0.1514911078205102  0.7768550662394123
  0.3891817446443375  0.8681911762690222  0.2174155525529381
  0.8020771905271517  0.9688109953041824  0.2770206544466713
  0.2063065775687553  0.1352146057159391  0.7033597997798647
  0.3141938150946469  0.6434321391015558  0.6803402403524582
  0.7333937491750251  0.4096285838424710  0.3347243390551272
  0.1773629784304886  0.4080020661988498  0.1693181320634644
  0.7832411324371755  0.5290773643714562  0.8304255239845364
  0.6202021646321708  0.1098811343312478  0.8240500910078119
  0.4266390621579840  0.8981802457783058  0.1714845652860183
  0.8493225170897775  0.9986828734414731  0.3221764545925090
  0.1483803514546444  0.1237424903834273  0.6573662389772087
  0.5348005739170161  0.5977371168457321  0.6299019764456827
  0.5520685401490033  0.4854574907800704  0.3991035447537529
  0.0277772463666765  0.5182276407277496  0.1029371413463821
  0.9622072066443929  0.3869504714213876  0.8844917890483495
  0.5380517581975327  0.9612914357130797  0.8915203677847868
  0.5223331976469171  0.0788431475576921  0.1112199247693819
  0.0032355892533338  0.1500868677238328  0.3760594823525107
  0.9992395970851643  0.9598754001186985  0.6016380965364645
 
 -0.14332154E-02 -0.29224337E-03 -0.17675631E-02
 -0.50735806E-03 -0.24901970E-03  0.13983000E-02
  0.90602594E-03 -0.30461715E-02  0.18755752E-02
  0.26068910E-04 -0.10420341E-02 -0.17519108E-02
  0.76791002E-03 -0.25091244E-02  0.14093374E-03
  0.13740331E-02  0.33023819E-02 -0.30796431E-02
 -0.83217889E-03 -0.45603022E-03 -0.19167579E-03
  0.37649240E-03 -0.41482524E-02  0.72726132E-03
 -0.22092587E-03  0.15255088E-02 -0.77226938E-03
  0.53670461E-02  0.37107098E-03 -0.56016288E-03
  0.14209130E-02 -0.19084813E-02 -0.11609440E-02
  0.58768755E-03 -0.14265901E-02  0.23128340E-02
 -0.22053228E-02 -0.96289558E-03  0.24359736E-02
 -0.33334165E-03 -0.64226798E-03 -0.74882902E-03
  0.11022821E-02  0.80518676E-02 -0.12677164E-02
  0.97523482E-03  0.52052733E-03 -0.18352851E-02
 -0.31076101E-02  0.94137330E-03 -0.59838717E-03
 -0.22999741E-02  0.12590164E-02  0.10392874E-02
 -0.79313573E-03 -0.41834442E-03  0.14158872E-02
  0.10614533E-02 -0.53826026E-03  0.96184519E-03
 -0.37692667E-02 -0.67626912E-02 -0.40526592E-02
 -0.16544257E-02 -0.11356070E-02  0.26893376E-02
  0.47212643E-02 -0.26998714E-02 -0.12182427E-02
  0.10470886E-02 -0.70128331E-02  0.94687390E-02
  0.24205187E-02 -0.24600893E-02  0.27095180E-03
  0.10842673E-02 -0.77293475E-02  0.16948722E-02
 -0.26559814E-02  0.48661465E-02  0.95167474E-02
  0.35111506E-03  0.36307219E-02  0.68225738E-02
 -0.50003529E-02 -0.10315841E-01 -0.20513177E-01
 -0.14452081E-01  0.33490261E-02  0.17669179E-02
 -0.90663743E-02  0.32827153E-01 -0.35606939E-01
  0.26694701E-01 -0.26751478E-01 -0.16799405E-01
  0.96143563E-02 -0.41075089E-02  0.17484519E-01
 -0.84461624E-02  0.13097440E-02 -0.20706526E-02
 -0.26499714E-03  0.72146897E-02  0.17110003E-01
 -0.18214995E-02 -0.10635945E-01  0.40402781E-02
 -0.48234901E-02 -0.95294032E-02 -0.16913602E-01
  0.50747329E-03  0.81118128E-03  0.93771583E-02
 -0.36103207E-02  0.32434982E-02  0.13684112E-01
 -0.70112482E-02 -0.15251900E-01  0.93061084E-02
  0.80489601E-02 -0.11085594E-01 -0.17656327E-01
  0.15433619E-01  0.23132785E-01 -0.84287793E-02
 -0.54003428E-02  0.31620265E-02 -0.28016178E-01
 -0.14327203E-02  0.13188422E-01  0.76251710E-02
 -0.99316507E-02  0.12975229E-03 -0.11625688E-01
  0.14331489E-01 -0.17165824E-01 -0.12344342E-01
  0.16985584E-01 -0.35996437E-02 -0.12025994E-01
  0.76829814E-02 -0.28571439E-02  0.51774422E-02
 -0.30107928E-02  0.24156475E-01  0.78201321E-02
  0.15026556E-01 -0.20790493E-01  0.22208622E-01
 -0.26636119E-01  0.43038102E-02  0.77396397E-02
 -0.15398682E-01 -0.28078418E-02 -0.32217616E-02
 -0.27069755E-02  0.75025324E-02 -0.16451311E-01
  0.27554601E-03 -0.82822187E-02 -0.12135891E-01
  0.76446702E-02  0.10324757E-01  0.20546009E-02
 -0.48790784E-03 -0.81904464E-02  0.12034179E-01
  0.69342712E-02 -0.46271085E-02 -0.80564952E-02
 -0.50142466E-02  0.64245585E-02  0.17277015E-02
  0.58072903E-02 -0.99774050E-02  0.31482034E-02
 -0.54618603E-02 -0.46938042E-03 -0.52350390E-02
 -0.90648633E-04  0.42612191E-02 -0.13352716E-01
 -0.98062635E-02 -0.15844161E-01 -0.31623947E-02
 -0.87937162E-02  0.57767760E-02 -0.55365878E-02
  0.14313639E-01 -0.54461938E-02 -0.21222561E-03
 -0.62065304E-02 -0.21475462E-02  0.45225027E-02
 -0.79668722E-02  0.92005418E-02  0.51737924E-02
 -0.11603264E-01  0.94437906E-02 -0.55166712E-02
 -0.10373547E-01  0.10895128E-01 -0.10131963E-01
 -0.49263858E-02 -0.98925272E-02 -0.14844620E-01
  0.19925568E-02 -0.14957960E-01 -0.14594342E-01
  0.50549588E-02 -0.17206970E-01  0.21410880E-01
  0.13166351E-01  0.11316591E-01  0.83966330E-02
 -0.11984582E-02 -0.41550901E-02  0.45102879E-02
  0.11467375E-01 -0.17680574E-01 -0.12038954E-01
 -0.29461204E-01  0.21397949E-01  0.50669623E-02
 -0.73270775E-02 -0.66774451E-02  0.15210346E-01
  0.46196133E-02 -0.88433905E-02 -0.72408000E-02
 -0.26099519E-02 -0.88495698E-02  0.19526290E-02
 -0.18601166E-01 -0.15092378E-01 -0.32358891E-02
  0.26443246E-01 -0.51154169E-03 -0.10070405E-02
 -0.13020311E-01  0.12856269E-01 -0.32656705E-03
  0.20350212E-01 -0.17192193E-01  0.57416083E-02
  0.79974699E-02  0.71997795E-02 -0.25662736E-02
 -0.75464911E-02  0.12435220E-01  0.13061349E-01
  0.22481440E-01  0.24802540E-02 -0.46939830E-02
 -0.64251012E-02  0.21780217E-02  0.27255761E-03
 -0.73322561E-02 -0.15543784E-01  0.60591663E-02
 -0.20974737E-01  0.14498605E-01 -0.11883409E-01
 -0.56656564E-02  0.35016727E-02  0.38468398E-02
 -0.14503262E-02 -0.53868663E-03 -0.51914735E-02
 -0.97029264E-02  0.12737577E-03 -0.66634102E-02
 -0.96948464E-02 -0.54169821E-04  0.51372183E-02
  0.58373561E-02 -0.25573211E-02 -0.49021542E-02
  0.14257435E-02 -0.94407503E-02 -0.10771556E-01
  0.16966686E-01  0.58336529E-02  0.13606109E-01
  0.70603891E-03 -0.66423274E-02 -0.16896496E-01
  0.16345443E-01  0.20346997E-01 -0.28858692E-02
  0.12459581E-01 -0.54888065E-02 -0.10734871E-02
  0.27784055E-02 -0.19452283E-01 -0.13455420E-01
 -0.17980080E-01 -0.82508689E-02  0.15507214E-01
 -0.11005180E-02  0.15505193E-02  0.59465003E-02
  0.16221576E-01  0.19657362E-01  0.19503193E-03
  0.77046814E-02  0.11935684E-01  0.23385325E-01
 -0.34844576E-02 -0.24584750E-01 -0.51143604E-02
 -0.24077748E-01  0.18472938E-01 -0.63428197E-02
  0.98641541E-02 -0.93781830E-02 -0.76433782E-02
 -0.74529404E-02  0.22351680E-01 -0.75737470E-02
 -0.59181092E-02  0.20737635E-02 -0.19364265E-01
 -0.29783940E-02  0.26813956E-02 -0.80155284E-02
 -0.40015270E-02 -0.52291223E-04  0.34217039E-02
 -0.37148977E-02 -0.29882987E-02  0.20365221E-02
  0.51431425E-02  0.23532143E-02 -0.19189423E-02
  0.76611553E-02  0.73720588E-02  0.21114782E-02
  0.70910056E-03  0.24236744E-02 -0.22559243E-02
 -0.34806058E-02  0.11439265E-02 -0.60855298E-02
 -0.86479057E-03  0.13585749E-03  0.41609849E-02
 -0.16690921E-02  0.50497044E-02 -0.61821751E-02
  0.49720589E-03 -0.67091519E-02  0.34243301E-02
 -0.22633958E-02  0.57167141E-03  0.71950856E-02
 -0.53483421E-02  0.24383592E-03 -0.18189669E-02
  0.23150939E-02  0.49747089E-02  0.13061802E-03
 -0.14755758E-01  0.11112629E-01  0.14735941E-02
 -0.94259254E-04 -0.40252448E-02 -0.48295398E-02
  0.36867164E-02 -0.32773027E-03  0.28232869E-02
 -0.21493689E-02  0.46539666E-02 -0.89215333E-02
  0.10233423E-03 -0.71903024E-02 -0.13629782E-03
  0.92991313E-03  0.51099746E-02  0.40069907E-02
  0.56274922E-03 -0.12071665E-02 -0.44802268E-02
  0.33723985E-02  0.57455087E-02 -0.26172885E-02
 -0.91342048E-02  0.12052672E-03  0.12241460E-01
  0.22129878E-02 -0.23550049E-02 -0.27426017E-02
  0.93636200E-02 -0.87660216E-03  0.12255134E-03
 -0.46514783E-02 -0.24783188E-02 -0.68318907E-02
  0.30308555E-02 -0.76962929E-03 -0.39156014E-02
 -0.43067860E-02  0.43415650E-02  0.11412959E-01
  0.47464110E-02  0.13704711E-01  0.31026557E-02
 -0.90601667E-04  0.16405257E-02 -0.32982858E-03
  0.60837731E-03 -0.45917102E-03  0.14456284E-02
 -0.65145853E-03  0.10191743E-01 -0.28809305E-02
  0.76520838E-02 -0.47076098E-02  0.48606131E-03
  0.23159603E-04  0.31200435E-02 -0.67406474E-02
 -0.32556117E-03  0.55278331E-02  0.61926073E-03
 -0.52613341E-02 -0.57850570E-02  0.94185126E-02
  0.59302214E-02  0.10166479E-02  0.57699687E-02
 -0.68961938E-02  0.17985177E-02  0.61742941E-04
  0.51045542E-02 -0.79445498E-03 -0.77096911E-02
 -0.48136117E-02  0.35928867E-03 -0.57383772E-02
  0.25212323E-02  0.10153367E-02  0.18642980E-02
 -0.31651029E-03  0.16119219E-02 -0.47218903E-02
 -0.21300901E-02  0.38488837E-02 -0.72564646E-03
 -0.62294653E-02 -0.54413511E-02  0.54963164E-02
  0.16071410E-02 -0.65665266E-03  0.31722248E-02
  0.60880095E-03  0.11455964E-02 -0.35351753E-02
  0.18850321E-02  0.28347863E-02  0.37799292E-02
  0.20402143E-02  0.80830954E-03  0.45310455E-02
 -0.37632621E-02  0.70524951E-02  0.72383347E-02
  0.13406242E-02  0.10471923E-04 -0.68525096E-02
  0.53887800E-02 -0.18417464E-03 -0.14456111E-02
  0.13459931E-02 -0.83852904E-02  0.44354455E-02
 -0.18486361E-02 -0.32105771E-02 -0.26664862E-02
 -0.44194654E-02  0.90821219E-02 -0.51208763E-03
  0.82035094E-02  0.28667635E-02 -0.21709152E-02
 -0.65920528E-02  0.74842335E-02 -0.19061371E-02
 -0.13550407E-02  0.20567472E-04  0.20428312E-02
 
           1
   1.00000000000000     
  0.10000000E+01  0.00000000E+00  0.00000000E+00  0.00000000E+00
  0.44246464E-02  0.52539560E+00  0.51194108E+00
  0.48731720E+00  0.41751497E+00  0.20326238E-01
  0.13554365E-01  0.91968624E+00  0.97690505E+00
  0.48313635E+00  0.51101694E-01  0.48965621E+00
  0.78790094E+00  0.81965187E+00  0.49468272E+00
  0.22723608E+00  0.27597852E+00  0.50182476E+00
  0.68821152E+00  0.14145292E+00  0.98765337E+00
  0.30330720E+00  0.76596463E+00  0.14077854E-01
  0.16390824E+00  0.24360927E+00  0.11180289E-01
  0.77952560E+00  0.63245272E+00  0.99543815E+00
  0.27360709E+00  0.72202199E+00  0.51191608E+00
  0.76398327E+00  0.30415687E+00  0.48759194E+00
  0.96707665E+00  0.48550391E+00  0.61559707E+00
  0.51266772E-01  0.59203638E+00  0.38733972E+00
  0.58435481E+00  0.52738571E+00  0.12886926E+00
  0.42041077E+00  0.48468716E+00  0.90943365E+00
  0.99755085E+00  0.94527822E+00  0.87382180E+00
  0.98508699E+00  0.99459342E+00  0.11076933E+00
  0.48229954E+00  0.46038398E-01  0.38293274E+00
  0.53824715E+00  0.99321485E-01  0.60279569E+00
  0.52630480E+00  0.49453308E+00  0.58703547E+00
  0.64500654E+00  0.61635054E+00  0.41629219E+00
  0.92876049E+00  0.38355315E+00  0.94550020E-01
  0.50573600E-01  0.53070249E+00  0.90099727E+00
  0.41553350E+00  0.85677065E+00  0.90229012E+00
  0.60766205E+00  0.96147467E+00  0.84669969E-01
  0.43992282E-01  0.96307516E-02  0.40924903E+00
  0.91604888E+00  0.80467050E-01  0.57584844E+00
  0.58954060E+00  0.39247124E+00  0.59058431E+00
  0.75216094E+00  0.61557005E+00  0.40248680E+00
  0.82450653E+00  0.40938744E+00  0.10846362E+00
  0.33073249E-01  0.62349018E+00  0.87791879E+00
  0.42206781E+00  0.74649893E+00  0.88464864E+00
  0.63566292E+00  0.11898904E-01  0.51146041E-01
  0.98084876E+00  0.23738016E-01  0.43943134E+00
  0.81902703E+00  0.10666265E+00  0.59342599E+00
  0.55841141E+00  0.54587459E+00  0.55628736E+00
  0.60757884E+00  0.72856369E+00  0.40971562E+00
  0.95748595E+00  0.27817804E+00  0.11034014E+00
  0.14978823E-01  0.56563150E+00  0.93398245E+00
  0.31753870E+00  0.91106944E+00  0.89477982E+00
  0.70569120E+00  0.93332301E+00  0.99721280E-01
  0.15278281E+00  0.18214057E-01  0.41727984E+00
  0.97158219E+00  0.18252612E+00  0.56851338E+00
  0.42158835E+00  0.46111337E+00  0.58192092E+00
  0.66387084E+00  0.61133835E+00  0.45191405E+00
  0.91534036E+00  0.35638854E+00  0.58932845E-01
  0.15899367E+00  0.50338109E+00  0.90225539E+00
  0.41758633E+00  0.82304520E+00  0.93822001E+00
  0.54218118E+00  0.86833917E+00  0.76487988E-01
  0.32311292E-01  0.90063496E+00  0.39272849E+00
  0.88044117E+00  0.38646578E-01  0.54297619E+00
  0.56942883E+00  0.35948811E+00  0.69714678E+00
  0.37702405E+00  0.50874679E+00  0.32601698E+00
  0.93808389E+00  0.71072755E+00  0.16779117E+00
  0.27698028E-01  0.25686920E+00  0.79766062E+00
  0.37344522E+00  0.80853647E+00  0.81947783E+00
  0.55196730E+00  0.26840297E+00  0.18738861E+00
  0.14203278E+00  0.23543107E+00  0.29499528E+00
  0.91254930E+00  0.82790723E+00  0.68027325E+00
  0.43714331E+00  0.35075875E+00  0.77116982E+00
  0.44455542E+00  0.50534662E+00  0.23973746E+00
  0.97381605E+00  0.69050909E+00  0.25606214E+00
  0.96417270E+00  0.34394688E+00  0.72258520E+00
  0.41589316E+00  0.85713073E+00  0.73328132E+00
  0.51370177E+00  0.18861365E+00  0.27241756E+00
  0.57449555E-01  0.15933919E+00  0.21494140E+00
  0.99573490E+00  0.87482881E+00  0.76251599E+00
  0.23461705E+00  0.52269662E+00  0.78982544E+00
  0.69454782E+00  0.46648944E+00  0.21831835E+00
  0.16153104E+00  0.49690128E+00  0.28617835E+00
  0.78994534E+00  0.56797470E+00  0.71030300E+00
  0.55173421E+00  0.86184001E-01  0.70810891E+00
  0.39849119E+00  0.93011579E+00  0.28859507E+00
  0.83738553E+00  0.22495379E-01  0.20167730E+00
  0.19905068E+00  0.67359133E-01  0.77492513E+00
  0.13477710E+00  0.69708668E+00  0.72581868E+00
  0.87956895E+00  0.37381137E+00  0.27670891E+00
  0.26731881E+00  0.30341592E+00  0.23123514E+00
  0.65878286E+00  0.66829598E+00  0.77970408E+00
  0.68400424E+00  0.25406826E+00  0.76489347E+00
  0.32476134E+00  0.76766210E+00  0.22546530E+00
  0.70032333E+00  0.90603506E+00  0.27212526E+00
  0.28711481E+00  0.22084703E+00  0.71333571E+00
  0.28424212E+00  0.73177878E+00  0.65450392E+00
  0.81462531E+00  0.39811124E+00  0.36148724E+00
  0.22967385E+00  0.32881108E+00  0.14549800E+00
  0.74247043E+00  0.58939867E+00  0.86175091E+00
  0.68209595E+00  0.17695126E+00  0.84979770E+00
  0.39224378E+00  0.82138503E+00  0.14252567E+00
  0.79278143E+00  0.96291636E+00  0.35444892E+00
  0.17351787E+00  0.20577712E+00  0.62938233E+00
  0.50373667E+00  0.70880731E+00  0.61549006E+00
  0.57466014E+00  0.38714819E+00  0.42202048E+00
  0.96569516E+00  0.62672554E+00  0.99338192E-01
  0.40820227E-01  0.29245848E+00  0.87913844E+00
  0.63178560E+00  0.90149507E+00  0.90618597E+00
  0.57718823E+00  0.18811818E+00  0.10661979E+00
  0.94790489E-01  0.22894926E+00  0.37673128E+00
  0.92424133E+00  0.86107699E+00  0.60405232E+00
  0.65044769E+00  0.58935346E+00  0.63792172E+00
  0.44059592E+00  0.52350467E+00  0.40362719E+00
  0.12168732E+00  0.51588919E+00  0.78678524E-01
  0.88245926E+00  0.35349963E+00  0.91163922E+00
  0.52447916E+00  0.68611581E-01  0.91366253E+00
  0.41652677E+00  0.76693507E-01  0.92873333E-01
  0.90856766E+00  0.20454533E+00  0.39312386E+00
  0.92621712E-01  0.93151855E+00  0.57891991E+00
  0.43497792E+00  0.55337233E+00  0.66874885E+00
  0.59306994E+00  0.45866740E+00  0.34912712E+00
  0.79140929E-01  0.51892497E+00  0.15360229E+00
  0.89758436E+00  0.42424246E+00  0.83668706E+00
  0.53364612E+00  0.99205629E+00  0.84148869E+00
  0.49225027E+00  0.40394821E-01  0.16174096E+00
  0.96535520E+00  0.10386556E+00  0.32717155E+00
  0.45421850E-01  0.69719088E-02  0.64955021E+00
  0.47917392E+00  0.43969246E+00  0.70169565E+00
  0.48751752E+00  0.48214479E+00  0.31470285E+00
  0.83187289E-02  0.62634407E+00  0.18385477E+00
  0.95018370E+00  0.35332076E+00  0.79543923E+00
  0.45061594E+00  0.90161536E+00  0.80975758E+00
  0.51246357E+00  0.15117970E+00  0.19603885E+00
  0.52189038E-01  0.15030076E+00  0.29018588E+00
  0.98858482E+00  0.92399866E+00  0.68783029E+00
  0.40298186E+00  0.43395266E+00  0.74445884E+00
  0.51837492E+00  0.47488201E+00  0.26797088E+00
  0.32848190E-01  0.61944868E+00  0.23222604E+00
  0.90988143E+00  0.39980562E+00  0.75129413E+00
  0.46525652E+00  0.93394358E+00  0.76080714E+00
  0.49018494E+00  0.10770438E+00  0.24378576E+00
  0.99909815E+00  0.11370497E+00  0.24534028E+00
  0.39028851E-01  0.94096692E+00  0.73355216E+00
  0.28662602E+00  0.52875447E+00  0.75544706E+00
  0.66550833E+00  0.45065898E+00  0.25505731E+00
  0.13292359E+00  0.50639392E+00  0.24895182E+00
  0.81006624E+00  0.51626453E+00  0.74432534E+00
  0.54452338E+00  0.61729059E-01  0.74500404E+00
  0.42078480E+00  0.96958510E+00  0.25385606E+00
  0.87216402E+00  0.33955092E-01  0.23841917E+00
  0.14718943E+00  0.46764914E-01  0.74022461E+00
  0.23205591E+00  0.63023509E+00  0.72121316E+00
  0.77021053E+00  0.40894620E+00  0.28731918E+00
  0.20042895E+00  0.40026099E+00  0.21778354E+00
  0.74279949E+00  0.57709732E+00  0.78542420E+00
  0.62459421E+00  0.15169859E+00  0.77685723E+00
  0.38974000E+00  0.86809953E+00  0.21714597E+00
  0.80155075E+00  0.96885244E+00  0.27682000E+00
  0.20658231E+00  0.13533174E+00  0.70342499E+00
  0.31415920E+00  0.64361809E+00  0.68017513E+00
  0.73316079E+00  0.41007260E+00  0.33469897E+00
  0.17668169E+00  0.40737434E+00  0.16951032E+00
  0.78341690E+00  0.52900161E+00  0.83053645E+00
  0.62026875E+00  0.11001329E+00  0.82392648E+00
  0.42684522E+00  0.89850727E+00  0.17161674E+00
  0.84954564E+00  0.99877612E+00  0.32233489E+00
  0.14796878E+00  0.12455608E+00  0.65761934E+00
  0.53494719E+00  0.59773832E+00  0.62966236E+00
  0.55265788E+00  0.48543624E+00  0.39905300E+00
  0.27924451E-01  0.51726030E+00  0.10309224E+00
  0.96200503E+00  0.38658009E+00  0.88439855E+00
  0.53756842E+00  0.96233916E+00  0.89150246E+00
  0.52323037E+00  0.79173862E-01  0.11114401E+00
  0.25146499E-02  0.15095026E+00  0.37599283E+00
  0.99909140E+00  0.95987777E+00  0.60170953E+00
 -0.15635956E-03 -0.35794305E-04 -0.61367980E-04
 -0.55185458E-04 -0.29875481E-04  0.48940014E-04
  0.99677239E-04 -0.35236990E-03  0.64421583E-04
  0.21513640E-05 -0.11918846E-03 -0.61404497E-04
  0.83902049E-04 -0.29131568E-03  0.43373697E-05
  0.14923358E-03  0.38375997E-03 -0.10764737E-03
 -0.92717177E-04 -0.54707627E-04 -0.64677767E-05
  0.41048067E-04 -0.47810930E-03  0.25033771E-04
 -0.25535868E-04  0.17583609E-03 -0.26386215E-04
  0.58615439E-03  0.42330313E-04 -0.19303839E-04
  0.15140197E-03 -0.22413978E-03 -0.40709852E-04
  0.67095759E-04 -0.16183335E-03  0.80987236E-04
 -0.24038537E-03 -0.11132160E-03  0.84696303E-04
 -0.36384314E-04 -0.75334050E-04 -0.26498978E-04
  0.12121277E-03  0.92881352E-03 -0.43425968E-04
  0.10565861E-03  0.63247466E-04 -0.63645487E-04
 -0.34079771E-03  0.10933063E-03 -0.20194562E-04
 -0.25095332E-03  0.14608685E-03  0.36591288E-04
 -0.85921536E-04 -0.47447231E-04  0.49175762E-04
  0.11562613E-03 -0.61404877E-04  0.33368988E-04
 -0.43692023E-03 -0.74082489E-03 -0.14793044E-03
 -0.21093225E-03 -0.14964543E-03  0.90294480E-04
  0.53451901E-03 -0.30195620E-03 -0.42663906E-04
  0.20324761E-03 -0.80402358E-03  0.33303595E-03
  0.28037636E-03 -0.25083571E-03 -0.79045181E-07
  0.14461652E-03 -0.89291295E-03  0.69658419E-04
 -0.29656907E-03  0.51632884E-03  0.34085734E-03
  0.48133673E-04  0.40356012E-03  0.23938271E-03
 -0.29084493E-03 -0.13292428E-02 -0.70680332E-03
 -0.13156118E-02  0.52483143E-03  0.38469935E-04
 -0.94086341E-03  0.36038856E-02 -0.12011212E-02
  0.27658851E-02 -0.28101763E-02 -0.64269595E-03
  0.11030589E-02 -0.10554311E-02  0.50527701E-03
 -0.88976733E-03  0.29805452E-03 -0.19085209E-03
 -0.14104104E-03  0.12312747E-02  0.63840051E-03
 -0.16708862E-03 -0.12890412E-02  0.15699279E-03
 -0.66442857E-03 -0.13702948E-02 -0.53390466E-03
  0.20118501E-03  0.35936990E-03  0.35799004E-03
 -0.68327199E-03  0.38953200E-03  0.49317572E-03
 -0.76092709E-03 -0.16082475E-02  0.32633823E-03
  0.90070808E-03 -0.10543383E-02 -0.63346947E-03
  0.13510905E-02  0.28537597E-02 -0.36413581E-03
 -0.58243077E-03  0.34041405E-03 -0.98264741E-03
 -0.25520114E-03  0.15059104E-02  0.20232442E-03
 -0.52711194E-03  0.26996016E-03 -0.34511920E-03
  0.16616161E-02 -0.19645153E-02 -0.38367965E-03
  0.18186382E-02 -0.60480843E-03 -0.46435719E-03
  0.58700858E-04 -0.33199737E-03  0.16607359E-03
 -0.13059819E-03  0.25372860E-02  0.35824467E-03
  0.14553718E-02 -0.22226833E-02  0.72056745E-03
 -0.27148850E-02  0.41488265E-03  0.19973389E-03
 -0.16659638E-02 -0.17266035E-03 -0.12312642E-03
 -0.36199587E-03  0.78100599E-03 -0.50771978E-03
  0.12381130E-03 -0.10244579E-02 -0.42382805E-03
  0.10923274E-02  0.95904837E-03  0.78231086E-04
 -0.17515064E-03 -0.93585771E-03  0.37971094E-03
  0.50692228E-03 -0.65851593E-03 -0.26658194E-03
 -0.54929687E-03  0.10938766E-02  0.48846307E-04
  0.80998915E-03 -0.73454660E-03  0.10282433E-03
 -0.55210025E-03 -0.18884619E-03 -0.17125055E-03
 -0.57814255E-04  0.39804818E-03 -0.43207027E-03
 -0.78513851E-03 -0.18353668E-02 -0.11423379E-03
 -0.80995104E-03  0.29413139E-03 -0.27810121E-03
  0.13934116E-02 -0.44522040E-03  0.11419719E-03
 -0.70306013E-03 -0.53889073E-03 -0.79788771E-05
 -0.91341261E-03  0.11111620E-02  0.24088668E-03
 -0.12050087E-02  0.11657511E-02 -0.19847123E-03
 -0.10037555E-02  0.12798596E-02 -0.34250263E-03
 -0.59729748E-03 -0.10631625E-02 -0.47649889E-03
  0.13486793E-03 -0.16032023E-02 -0.46663876E-03
  0.67073456E-03 -0.19984130E-02  0.70800887E-03
  0.14930406E-02  0.14774226E-02  0.28147560E-03
 -0.70416137E-04 -0.44657548E-03  0.20836660E-03
  0.13269859E-02 -0.21412082E-02 -0.49227776E-03
 -0.30291481E-02  0.26329837E-02  0.86970319E-04
 -0.55132041E-03 -0.59155988E-03  0.57363109E-03
  0.51953817E-03 -0.10723113E-02 -0.27474650E-03
 -0.27901239E-03 -0.11300265E-02  0.75585956E-04
 -0.19435055E-02 -0.21243314E-02 -0.83875999E-04
  0.24941431E-02  0.34377967E-03 -0.10565514E-03
 -0.14806403E-02  0.15720144E-02 -0.34554684E-04
  0.23203609E-02 -0.15717647E-02  0.18449620E-03
  0.72788998E-03  0.90346288E-03 -0.81988656E-04
 -0.93802428E-03  0.13218299E-02  0.50042630E-03
  0.24835626E-02  0.33088105E-03 -0.18258202E-03
 -0.94939327E-03  0.47358387E-03 -0.23119285E-04
 -0.89480733E-03 -0.15462577E-02  0.25551206E-03
 -0.20502582E-02  0.16838964E-02 -0.36389156E-03
 -0.62849317E-03  0.38174497E-03  0.15150163E-03
 -0.26665180E-03 -0.11069802E-03 -0.25137469E-03
 -0.98789230E-03  0.10789072E-03 -0.12678320E-03
 -0.12841461E-02  0.18978233E-03  0.13438076E-03
  0.53224723E-03 -0.64447338E-03 -0.20766680E-03
  0.12967130E-03 -0.10290975E-02 -0.36098136E-03
  0.17884433E-02  0.88226349E-03  0.56819672E-03
  0.22655312E-05 -0.73206561E-03 -0.64272600E-03
  0.12729402E-02  0.23797040E-02 -0.43484900E-04
  0.12428117E-02 -0.95168537E-03 -0.50482561E-04
  0.22972104E-03 -0.22739975E-02 -0.49470358E-03
 -0.18578357E-02 -0.63085567E-03  0.55289048E-03
 -0.34081241E-03 -0.94125595E-04  0.11582143E-03
  0.19618362E-02  0.22738760E-02  0.20451159E-04
  0.11244121E-02  0.14206760E-02  0.78812747E-03
 -0.38370642E-03 -0.29448063E-02 -0.17764041E-03
 -0.25920950E-02  0.23468387E-02 -0.13638305E-03
  0.10582648E-02 -0.13250875E-02 -0.24896833E-03
 -0.71440480E-03  0.24960048E-02 -0.30217442E-03
 -0.73452625E-03  0.34821988E-03 -0.66417432E-03
 -0.36917443E-03  0.34362320E-03 -0.29754867E-03
 -0.42660776E-03  0.27211473E-04  0.12817992E-03
 -0.36667149E-03 -0.36720872E-03  0.79802924E-04
  0.56127487E-03  0.31408277E-03 -0.57070432E-04
  0.82577816E-03  0.85845687E-03  0.96874632E-04
  0.70683539E-04  0.28219963E-03 -0.59863844E-04
 -0.41051947E-03  0.18092011E-03 -0.23092282E-03
 -0.79358724E-04  0.20370733E-04  0.13354282E-03
 -0.13688784E-03  0.55343238E-03 -0.22493233E-03
  0.10116790E-03 -0.77991429E-03  0.10511384E-03
 -0.28449278E-03  0.12244554E-03  0.24428887E-03
 -0.60039200E-03  0.38933611E-04 -0.83156060E-04
  0.24077823E-03  0.55700719E-03  0.23712286E-04
 -0.16412649E-02  0.12691975E-02  0.31246522E-04
  0.16207275E-04 -0.48989782E-03 -0.15733943E-03
  0.40810569E-03  0.55040756E-05  0.10488707E-03
 -0.26896501E-03  0.56308570E-03 -0.31428597E-03
 -0.69404788E-04 -0.85565957E-03  0.73966123E-05
  0.45553953E-04  0.65012088E-03  0.15237711E-03
  0.44523237E-04 -0.12555083E-03 -0.14983600E-03
  0.37185171E-03  0.67295070E-03 -0.90720808E-04
 -0.97037086E-03 -0.12944716E-04  0.42896307E-03
  0.17406875E-03 -0.31406371E-03 -0.96174720E-04
  0.10469805E-02 -0.10743465E-03  0.10733953E-04
 -0.46602995E-03 -0.31233685E-03 -0.23584686E-03
  0.35194156E-03 -0.88109392E-04 -0.13003105E-03
 -0.46105456E-03  0.49512839E-03  0.41227817E-03
  0.55846975E-03  0.15153716E-02  0.85864149E-04
 -0.34555263E-04  0.20850329E-03 -0.21935212E-04
  0.38503942E-04 -0.45884988E-04  0.60647791E-04
 -0.79234370E-04  0.11920055E-02 -0.93289893E-04
  0.75620890E-03 -0.60243796E-03  0.11285272E-04
 -0.46037268E-04  0.39507527E-03 -0.23534191E-03
 -0.34158075E-04  0.64167710E-03  0.12303278E-04
 -0.58764832E-03 -0.65971059E-03  0.32116893E-03
  0.67315710E-03  0.89657388E-04  0.21287627E-03
 -0.72258815E-03  0.24027094E-03  0.26851061E-06
  0.58173175E-03 -0.78026902E-04 -0.26997554E-03
 -0.46562143E-03  0.72135215E-04 -0.20342848E-03
  0.33579944E-03  0.11920065E-03  0.74423438E-04
 -0.22463030E-05  0.15626381E-03 -0.15390384E-03
 -0.20265592E-03  0.40994855E-03 -0.28683763E-04
 -0.66154539E-03 -0.65907190E-03  0.17983085E-03
  0.16518951E-03 -0.12111000E-03  0.11101068E-03
  0.49759446E-04  0.94041401E-04 -0.12286178E-03
  0.21915200E-03  0.31832751E-03  0.13226675E-03
  0.20973739E-03  0.49995992E-04  0.16051968E-03
 -0.42547354E-03  0.81282010E-03  0.23848556E-03
  0.16171180E-03  0.89739015E-05 -0.22443598E-03
  0.56588524E-03 -0.43855544E-04 -0.42834592E-04
  0.12387305E-03 -0.99308690E-03  0.14755008E-03
 -0.20808490E-03 -0.41126746E-03 -0.80301822E-04
 -0.43643685E-03  0.10545836E-02 -0.34601783E-04
  0.94016052E-03  0.35164928E-03 -0.75705354E-04
 -0.74008090E-03  0.89415037E-03 -0.72882550E-04
 -0.15383472E-03 -0.20060585E-04  0.76238174E-04
  0.00000000E+00  0.00000000E+00  0.00000000E+00
  0.00000000E+00  0.00000000E+00  0.00000000E+00
  0.00000000E+00  0.00000000E+00  0.00000000E+00
  0.00000000E+00  0.00000000E+00  0.00000000E+00
  0.00000000E+00  0.00000000E+00  0.00000000E+00
  0.00000000E+00  0.00000000E+00  0.00000000E+00
  0.00000000E+00  0.00000000E+00  0.00000000E+00
  0.00000000E+00  0.00000000E+00  0.00000000E+00
  0.00000000E+00  0.00000000E+00  0.00000000E+00
  0.00000000E+00  0.00000000E+00  0.00000000E+00
  0.00000000E+00  0.00000000E+00  0.00000000E+00
  0.00000000E+00  0.00000000E+00  0.00000000E+00
  0.00000000E+00  0.00000000E+00  0.00000000E+00
  0.00000000E+00  0.00000000E+00  0.00000000E+00
  0.00000000E+00  0.00000000E+00  0.00000000E+00
  0.00000000E+00  0.00000000E+00  0.00000000E+00
  0.00000000E+00  0.00000000E+00  0.00000000E+00
  0.00000000E+00  0.00000000E+00  0.00000000E+00
  0.00000000E+00  0.00000000E+00  0.00000000E+00
  0.00000000E+00  0.00000000E+00  0.00000000E+00
  0.00000000E+00  0.00000000E+00  0.00000000E+00
  0.00000000E+00  0.00000000E+00  0.00000000E+00
  0.00000000E+00  0.00000000E+00  0.00000000E+00
  0.00000000E+00  0.00000000E+00  0.00000000E+00
  0.00000000E+00  0.00000000E+00  0.00000000E+00
  0.00000000E+00  0.00000000E+00  0.00000000E+00
  0.00000000E+00  0.00000000E+00  0.00000000E+00
  0.00000000E+00  0.00000000E+00  0.00000000E+00
  0.00000000E+00  0.00000000E+00  0.00000000E+00
  0.00000000E+00  0.00000000E+00  0.00000000E+00
  0.00000000E+00  0.00000000E+00  0.00000000E+00
  0.00000000E+00  0.00000000E+00  0.00000000E+00
  0.00000000E+00  0.00000000E+00  0.00000000E+00
  0.00000000E+00  0.00000000E+00  0.00000000E+00
  0.00000000E+00  0.00000000E+00  0.00000000E+00
  0.00000000E+00  0.00000000E+00  0.00000000E+00
  0.00000000E+00  0.00000000E+00  0.00000000E+00
  0.00000000E+00  0.00000000E+00  0.00000000E+00
  0.00000000E+00  0.00000000E+00  0.00000000E+00
  0.00000000E+00  0.00000000E+00  0.00000000E+00
  0.00000000E+00  0.00000000E+00  0.00000000E+00
  0.00000000E+00  0.00000000E+00  0.00000000E+00
  0.00000000E+00  0.00000000E+00  0.00000000E+00
  0.00000000E+00  0.00000000E+00  0.00000000E+00
  0.00000000E+00  0.00000000E+00  0.00000000E+00
  0.00000000E+00  0.00000000E+00  0.00000000E+00
  0.00000000E+00  0.00000000E+00  0.00000000E+00
  0.00000000E+00  0.00000000E+00  0.00000000E+00
  0.00000000E+00  0.00000000E+00  0.00000000E+00
  0.00000000E+00  0.00000000E+00  0.00000000E+00
  0.00000000E+00  0.00000000E+00  0.00000000E+00
  0.00000000E+00  0.00000000E+00  0.00000000E+00
  0.00000000E+00  0.00000000E+00  0.00000000E+00
  0.00000000E+00  0.00000000E+00  0.00000000E+00
  0.00000000E+00  0.00000000E+00  0.00000000E+00
  0.00000000E+00  0.00000000E+00  0.00000000E+00
  0.00000000E+00  0.00000000E+00  0.00000000E+00
  0.00000000E+00  0.00000000E+00  0.00000000E+00
  0.00000000E+00  0.00000000E+00  0.00000000E+00
  0.00000000E+00  0.00000000E+00  0.00000000E+00
  0.00000000E+00  0.00000000E+00  0.00000000E+00
  0.00000000E+00  0.00000000E+00  0.00000000E+00
  0.00000000E+00  0.00000000E+00  0.00000000E+00
  0.00000000E+00  0.00000000E+00  0.00000000E+00
  0.00000000E+00  0.00000000E+00  0.00000000E+00
  0.00000000E+00  0.00000000E+00  0.00000000E+00
  0.00000000E+00  0.00000000E+00  0.00000000E+00
  0.00000000E+00  0.00000000E+00  0.00000000E+00
  0.00000000E+00  0.00000000E+00  0.00000000E+00
  0.00000000E+00  0.00000000E+00  0.00000000E+00
  0.00000000E+00  0.00000000E+00  0.00000000E+00
  0.00000000E+00  0.00000000E+00  0.00000000E+00
  0.00000000E+00  0.00000000E+00  0.00000000E+00
  0.00000000E+00  0.00000000E+00  0.00000000E+00
  0.00000000E+00  0.00000000E+00  0.00000000E+00
  0.00000000E+00  0.00000000E+00  0.00000000E+00
  0.00000000E+00  0.00000000E+00  0.00000000E+00
  0.00000000E+00  0.00000000E+00  0.00000000E+00
  0.00000000E+00  0.00000000E+00  0.00000000E+00
  0.00000000E+00  0.00000000E+00  0.00000000E+00
  0.00000000E+00  0.00000000E+00  0.00000000E+00
  0.00000000E+00  0.00000000E+00  0.00000000E+00
  0.00000000E+00  0.00000000E+00  0.00000000E+00
  0.00000000E+00  0.00000000E+00  0.00000000E+00
  0.00000000E+00  0.00000000E+00  0.00000000E+00
  0.00000000E+00  0.00000000E+00  0.00000000E+00
  0.00000000E+00  0.00000000E+00  0.00000000E+00
  0.00000000E+00  0.00000000E+00  0.00000000E+00
  0.00000000E+00  0.00000000E+00  0.00000000E+00
  0.00000000E+00  0.00000000E+00  0.00000000E+00
  0.00000000E+00  0.00000000E+00  0.00000000E+00
  0.00000000E+00  0.00000000E+00  0.00000000E+00
  0.00000000E+00  0.00000000E+00  0.00000000E+00
  0.00000000E+00  0.00000000E+00  0.00000000E+00
  0.00000000E+00  0.00000000E+00  0.00000000E+00
  0.00000000E+00  0.00000000E+00  0.00000000E+00
  0.00000000E+00  0.00000000E+00  0.00000000E+00
  0.00000000E+00  0.00000000E+00  0.00000000E+00
  0.00000000E+00  0.00000000E+00  0.00000000E+00
  0.00000000E+00  0.00000000E+00  0.00000000E+00
  0.00000000E+00  0.00000000E+00  0.00000000E+00
  0.00000000E+00  0.00000000E+00  0.00000000E+00
  0.00000000E+00  0.00000000E+00  0.00000000E+00
  0.00000000E+00  0.00000000E+00  0.00000000E+00
  0.00000000E+00  0.00000000E+00  0.00000000E+00
  0.00000000E+00  0.00000000E+00  0.00000000E+00
  0.00000000E+00  0.00000000E+00  0.00000000E+00
  0.00000000E+00  0.00000000E+00  0.00000000E+00
  0.00000000E+00  0.00000000E+00  0.00000000E+00
  0.00000000E+00  0.00000000E+00  0.00000000E+00
  0.00000000E+00  0.00000000E+00  0.00000000E+00
  0.00000000E+00  0.00000000E+00  0.00000000E+00
  0.00000000E+00  0.00000000E+00  0.00000000E+00
  0.00000000E+00  0.00000000E+00  0.00000000E+00
  0.00000000E+00  0.00000000E+00  0.00000000E+00
  0.00000000E+00  0.00000000E+00  0.00000000E+00
  0.00000000E+00  0.00000000E+00  0.00000000E+00
  0.00000000E+00  0.00000000E+00  0.00000000E+00
  0.00000000E+00  0.00000000E+00  0.00000000E+00
  0.00000000E+00  0.00000000E+00  0.00000000E+00
  0.00000000E+00  0.00000000E+00  0.00000000E+00
  0.00000000E+00  0.00000000E+00  0.00000000E+00
  0.00000000E+00  0.00000000E+00  0.00000000E+00
  0.00000000E+00  0.00000000E+00  0.00000000E+00
  0.00000000E+00  0.00000000E+00  0.00000000E+00
  0.00000000E+00  0.00000000E+00  0.00000000E+00
  0.00000000E+00  0.00000000E+00  0.00000000E+00
  0.00000000E+00  0.00000000E+00  0.00000000E+00
  0.00000000E+00  0.00000000E+00  0.00000000E+00
  0.00000000E+00  0.00000000E+00  0.00000000E+00
  0.00000000E+00  0.00000000E+00  0.00000000E+00
  0.00000000E+00  0.00000000E+00  0.00000000E+00
  0.00000000E+00  0.00000000E+00  0.00000000E+00
  0.00000000E+00  0.00000000E+00  0.00000000E+00
  0.00000000E+00  0.00000000E+00  0.00000000E+00
  0.00000000E+00  0.00000000E+00  0.00000000E+00
  0.00000000E+00  0.00000000E+00  0.00000000E+00
  0.00000000E+00  0.00000000E+00  0.00000000E+00
  0.00000000E+00  0.00000000E+00  0.00000000E+00
  0.00000000E+00  0.00000000E+00  0.00000000E+00
  0.00000000E+00  0.00000000E+00  0.00000000E+00
  0.00000000E+00  0.00000000E+00  0.00000000E+00
  0.00000000E+00  0.00000000E+00  0.00000000E+00
  0.00000000E+00  0.00000000E+00  0.00000000E+00
  0.00000000E+00  0.00000000E+00  0.00000000E+00
  0.00000000E+00  0.00000000E+00  0.00000000E+00
  0.00000000E+00  0.00000000E+00  0.00000000E+00
  0.00000000E+00  0.00000000E+00  0.00000000E+00
  0.00000000E+00  0.00000000E+00  0.00000000E+00
  0.00000000E+00  0.00000000E+00  0.00000000E+00
  0.00000000E+00  0.00000000E+00  0.00000000E+00
  0.00000000E+00  0.00000000E+00  0.00000000E+00
  0.00000000E+00  0.00000000E+00  0.00000000E+00
  0.00000000E+00  0.00000000E+00  0.00000000E+00
  0.00000000E+00  0.00000000E+00  0.00000000E+00
  0.00000000E+00  0.00000000E+00  0.00000000E+00
  0.00000000E+00  0.00000000E+00  0.00000000E+00
  0.00000000E+00  0.00000000E+00  0.00000000E+00
  0.00000000E+00  0.00000000E+00  0.00000000E+00
  0.00000000E+00  0.00000000E+00  0.00000000E+00
  0.00000000E+00  0.00000000E+00  0.00000000E+00
  0.00000000E+00  0.00000000E+00  0.00000000E+00
  0.00000000E+00  0.00000000E+00  0.00000000E+00
  0.00000000E+00  0.00000000E+00  0.00000000E+00
