2(C7 H9 F N +), I4 Pb 2-                
   1.00000000000000     
     8.7325000762999991    0.0000000000000000    0.0000000000000000
     0.0000000000000000    9.2819004059000001    0.0000000000000000
    -3.7349164072000001    0.0000000000000000   27.4712691195999987
   Pb   I    F    N    H    C 
     4    16     8     8    72    56
Direct
  0.5026023853603206  0.5768449222605948  0.2461413487883492
  0.4977410967330532  0.4211127045143942  0.7526937530491262
  0.0009121226708457  0.0755090577557983  0.2565766367612382
  0.0005997687120239  0.9261935232924616  0.7447405576606678
  0.4578353073855671  0.5991308839171570  0.1306866189353265
  0.5347842321871104  0.3990734024338990  0.8697349341017172
  0.0365550647981076  0.0951389588690522  0.3678200298934528
  0.9583425040838695  0.9026534650312132  0.6319991906802200
  0.5498230604189993  0.4838374761812826  0.3670086609398840
  0.4468636634969898  0.5080651914091895  0.6338781689739629
  0.9550913979932462  0.9802706522286975  0.1348374706424030
  0.0597215431640586  0.0067663639931146  0.8657551800533075
  0.2184989200084796  0.3489963238520157  0.2141388180184558
  0.7875629417409550  0.6398719410865381  0.7842440750527448
  0.2766296849994271  0.8505886962693557  0.2853720061520720
  0.7159772201161191  0.1419094107920095  0.7157921313946796
  0.8144914216010885  0.8208190977450347  0.2732295269034755
  0.1796006621549821  0.1773803187428312  0.7277697090592316
  0.6788534287611661  0.3256746745961966  0.2281180290309563
  0.3265682154790178  0.6753270552102763  0.7693334855403028
  0.8389351326620117  0.3467347723218845  0.4290924611723171
  0.1719226530529049  0.6585013470895391  0.5718931295264635
  0.6463593918799159  0.8421154223560661  0.0700862638216883
  0.3275877669698767  0.1561964149568459  0.9293909148090387
  0.6044225858272201  0.8196256345798240  0.5540993994628952
  0.3866718972732311  0.1925564470020928  0.4435690690878175
  0.8847256222551321  0.3052850190310873  0.9484776759194662
  0.0744193912379836  0.7183445506920803  0.0535755029397728
  0.0569833847898430  0.5172897430831793  0.6502848406998168
  0.9510249650033819  0.4839305916328829  0.3506624103734406
  0.4525087037069066  0.0297805538816225  0.8542829883233199
  0.5527120635523862  0.9826612227993310  0.1491852345579125
  0.4387069202338904  0.1098310815941138  0.3522516043657482
  0.5334739428456247  0.8938508400718754  0.6438503366901275
  0.0547630121383684  0.6118836704633301  0.1472073092340395
  0.9640477518681118  0.3948572362617974  0.8515330802159704
  0.1700258092740747  0.4903160181866177  0.6446552649432529
  0.8402821757655429  0.4933446298218562  0.3616618454257407
  0.3452580223912938  0.9898546660588895  0.8609082571857040
  0.6621218488559157  0.9900280152682598  0.1373223591995425
  0.0576739655918766  0.5365637394381207  0.6871464174814463
  0.9350964733506445  0.4799394598460778  0.3132438796518106
  0.4411591870094603  0.0566571748289203  0.8174036049571721
  0.5707918435695929  0.9777948437097845  0.1867374089621689
  0.0302672892759906  0.6149368513950638  0.6322259573114739
  0.9942271063252421  0.3842459807908134  0.3635442875198160
  0.4728054211738172  0.1287003604628476  0.8722361888321302
  0.5070710680302245  0.8833295450870267  0.1361708294912953
  0.6609442867438721  0.4625928690911810  0.4812365739703915
  0.3407724932066901  0.5352567784266681  0.5185800732017504
  0.8367278594107990  0.9832738852015178  0.0247069450582172
  0.1640249874936127  0.0223270015226507  0.9825384326493404
  0.7067231092892994  0.4754309250508604  0.5722820718285253
  0.2917629832399812  0.5261265499981653  0.4273138807563853
  0.8133764735019533  0.0126455520196642  0.9350181580657850
  0.2153952474217103  0.0110451174081307  0.0739036693808099
  0.1537134839991628  0.2711762409060943  0.5699308738165220
  0.8488111909790644  0.7359884659027425  0.4326019888847815
  0.3817742418501390  0.7749863838391631  0.9205873107457601
  0.6436844651402308  0.2458488431225128  0.0686897973862610
  0.0960407254033296  0.2550548142971431  0.4797692505279171
  0.9120450080526709  0.7519204098701078  0.5227755810743067
  0.4081308815527277  0.7512162595305720  0.0095834606541115
  0.5796978245332035  0.2643930603430542  0.9784792469012842
  0.9885816614033038  0.3017075714855017  0.6547202140955911
  0.9934287404495444  0.7064574487522292  0.3483106989860121
  0.5465367380539946  0.8263050622947019  0.8436197622256552
  0.5139179898012306  0.2051422735192881  0.1518464564024362
  0.8319842275498911  0.4263813323476818  0.6415762439138205
  0.1647369711824894  0.5984442813820903  0.3576521491330256
  0.6887894193009357  0.9676935515695163  0.8578810956686064
  0.3404170830617309  0.0995046307764068  0.1443278457784504
  0.4348951759456592  0.2153682482207099  0.3657195251567819
  0.5295527852777580  0.7825113455977361  0.6370520445112274
  0.1331080189955662  0.5255418692713600  0.1546053630474506
  0.9778780149599895  0.3440718651030679  0.8194074846579192
  0.3482138332461259  0.0477143672810517  0.3611685371770481
  0.6219477127668929  0.9394996056473204  0.6272091421477972
  0.0565069849085695  0.6693206473691927  0.1791321753195642
  0.9123109108774039  0.3244533841571933  0.8734699002884049
  0.4210334735081234  0.1179109028973481  0.3145187618424899
  0.5610429096905298  0.9125394001081057  0.6811654285479055
  0.0914142819498522  0.6847769843210855  0.1229235942051868
  0.8921104284843062  0.4836481706304747  0.8431383789017399
  0.4349771491570227  0.7209747508170354  0.4736520402001690
  0.5668518580807453  0.2846477291539667  0.5245563327249153
  0.1086210880896153  0.2403845538027241  0.0271888912476464
  0.8954233645559787  0.7826512331798817  0.9653400761021970
  0.4348872125374937  0.8216146716125254  0.3949869699531661
  0.5552455489808821  0.1855290243831813  0.6047458633897339
  0.0924692428576838  0.3435877502482223  0.1076672155272464
  0.9200606243612325  0.6624620201136553  0.8913942956001781
  0.8094007273681351  0.1081389809437869  0.4503424094796786
  0.1806119748896030  0.9039676975572439  0.5455367760624764
  0.7001682405926773  0.6045066253103608  0.0504302039330797
  0.3023714793298398  0.4108514283399108  0.9626084597475046
  0.8256042003154302  0.9853354509552649  0.5310816304919671
  0.1788370693012775  0.0223788222182934  0.4638254035841635
  0.6994144781169415  0.4807901202457779  0.9687506524927743
  0.2994667515618961  0.5585227178179636  0.0364614454053097
  0.6775053361515057  0.1280162959215699  0.3597376897387360
  0.2918579753347352  0.8751141260205810  0.6299363309926587
  0.8125744067833356  0.6459508703200902  0.1304294908989672
  0.1966929531980591  0.3510512301638480  0.8778338561470530
  0.5971733471640087  0.9549669401125663  0.3394055336360131
  0.3674873041950911  0.0402459269782615  0.6585061812639847
  0.8777404208126405  0.4768328604887345  0.1592380071495462
  0.1541936300718745  0.5229385137404180  0.8478650179054023
  0.8727258205403561  0.3531533892294778  0.4785872530691533
  0.1329248921502642  0.6498281677507173  0.5224630633951667
  0.6272471109570130  0.8626571324032600  0.0204358807287526
  0.3664983806440996  0.1466933066993167  0.9785703084178694
  0.7620749156245962  0.4170702016819119  0.5022334781831457
  0.2405235881408618  0.5836528914003287  0.4980111615376574
  0.7410590329839255  0.9370953350947435  0.0012940404732040
  0.2629963829665992  0.0733213106277751  0.0029508015931904
  0.7891901361159732  0.4207181408197734  0.5522075231598887
  0.2111989122600099  0.5816199806261577  0.4481199405109332
  0.7295415207408753  0.9476935130021120  0.9509912843217226
  0.2923157252369405  0.0710721193684382  0.0530042312590452
  0.9319574294494469  0.3698255562134245  0.5775690510903313
  0.0682331968683321  0.6349634488758749  0.4238105197293728
  0.5989953421423322  0.8882181082481585  0.9211948409467832
  0.4313122407428882  0.1332476252303321  0.0771746136156402
  0.0435024378307356  0.3069263603058328  0.5513144509204186
  0.9591059451222451  0.6985658889097044  0.4507443010787687
  0.4835470148267033  0.8166347927253657  0.9428167211304939
  0.5363129376647053  0.2030104767132973  0.0502584866472478
  0.0125642861618800  0.2997900976711224  0.5007636777350800
  0.9929560969742129  0.7051968390211840  0.5012111859667786
  0.4965193236829115  0.8060088185098633  0.9930827530157644
  0.5023652474514686  0.2107779941441209  0.9998818873564063
  0.9469927759253077  0.3955655818988627  0.6327011512692379
  0.0494351335240934  0.6149501963052909  0.3685885151136221
  0.5800200224232842  0.9204627294875309  0.8669295626424891
  0.4544350030805421  0.1142934748911772  0.1323213908906255
  0.6225228229511390  0.8582437243361021  0.5078814654094941
  0.3767022127971687  0.1508484885177549  0.4900232122421521
  0.9000822224583801  0.3600860168375845  0.9948395795145226
  0.0943491915695847  0.6730806301351012  0.0076083888556340
  0.5204993862225730  0.8055256682170036  0.4693868053971774
  0.4796382178739351  0.2017409618419067  0.5288179727077630
  0.0183489769708868  0.3202311731125764  0.0314573081590778
  0.9884962887143757  0.7025004262910682  0.9663873772784369
  0.5189623497282988  0.8685476948398930  0.4241337550011464
  0.4734394225133423  0.1417419805614629  0.5744848923513906
  0.0107926754238723  0.3838231535051971  0.0767468647642367
  0.9995348721364967  0.6272309184956150  0.9235534485011757
  0.6139663866779143  0.9862597084260815  0.4168076890264535
  0.3707023630974866  0.0288952312333423  0.5802011579655917
  0.8957567129346132  0.4863911195611632  0.0827293528705247
  0.1070788254781789  0.5157565050761349  0.9220165760462522
  0.7285436752840488  0.0250163161290654  0.4555349196250910
  0.2625033640247090  0.9863882578115918  0.5404599266950761
  0.7857225879954967  0.5270069560691608  0.0442212252333748
  0.2138470472593287  0.4915072772490640  0.9635067095024025
  0.7402960008708019  0.9545423282439820  0.5007543391967765
  0.2599606788902564  0.0519483153321543  0.4952834963391718
  0.7853319899889006  0.4594753502756574  0.9998599867184605
  0.2151892320827432  0.5766438366579463  0.0048407881710778
  0.5949432937399194  0.0435141842896647  0.3658982854845900
  0.3773045544817683  0.9607309343982111  0.6293718599300456
  0.8963426285933151  0.5583581814153157  0.1314027583449381
  0.1189680310055886  0.4436879774383451  0.8741306993660117
 
  0.13158172E-02  0.20945745E-02 -0.15021551E-02
 -0.11025040E-02 -0.21510431E-02  0.13133939E-02
 -0.14797870E-02  0.15001140E-02  0.16802657E-02
  0.12268779E-02 -0.21349391E-02 -0.14565571E-02
 -0.60345372E-03 -0.41968382E-02 -0.34490258E-03
  0.47580157E-03  0.44045606E-02  0.99297055E-03
  0.51035834E-03 -0.36904291E-02  0.83482611E-03
 -0.11626742E-02  0.36720620E-02 -0.82919480E-03
 -0.24888577E-02 -0.43267160E-02 -0.66818720E-03
  0.25182184E-02  0.38166686E-02  0.10070613E-02
  0.25706415E-02 -0.43570024E-02  0.48706186E-03
 -0.28539999E-02  0.39671815E-02 -0.12200627E-02
 -0.82886126E-03  0.32069642E-02  0.46954467E-03
  0.82133551E-03 -0.36001010E-02 -0.59855055E-03
  0.86780895E-03  0.36695496E-02 -0.26897627E-03
 -0.35251386E-03 -0.26822094E-02  0.13972291E-02
  0.94164751E-03  0.33377070E-02 -0.10244581E-02
 -0.95329730E-03 -0.23237095E-02  0.95538555E-03
 -0.98733641E-03  0.22375115E-02  0.15447022E-02
  0.16308829E-02 -0.18468926E-02 -0.77428673E-03
  0.31365797E-02 -0.39544689E-02  0.21310765E-02
 -0.34643558E-02  0.57483475E-02 -0.22069612E-02
 -0.40019105E-02  0.11127983E-02 -0.26589249E-02
  0.40436546E-02  0.36890590E-02  0.46952842E-03
  0.57749402E-02  0.49169478E-02 -0.10225973E-02
 -0.89963257E-02 -0.28668247E-02  0.28544709E-02
 -0.58176840E-02 -0.15197091E-02  0.35067142E-02
  0.68761256E-02  0.14155210E-02 -0.42058303E-02
 -0.23313813E-02 -0.25195274E-02  0.68185792E-02
  0.27299008E-02  0.35309021E-02 -0.70012983E-02
  0.12663828E-02 -0.24297698E-02 -0.69901059E-02
  0.27156822E-05  0.26161801E-02  0.52462395E-02
 -0.27645104E-02  0.49604677E-02  0.45345321E-02
  0.31983332E-02 -0.11587057E-01 -0.72259590E-02
  0.41900129E-02  0.77098072E-02  0.13009773E-02
 -0.16195805E-02 -0.50093275E-02 -0.85834268E-05
  0.11753890E-02  0.15631193E-01 -0.56892914E-02
  0.25687590E-02 -0.14926238E-01  0.23407535E-02
 -0.35563994E-02 -0.22608812E-02 -0.27698151E-01
 -0.18120270E-02 -0.14694994E-01 -0.46420211E-02
 -0.31657419E-02 -0.20372248E-01  0.15415807E-01
 -0.37349885E-02  0.21694634E-01 -0.12450407E-01
  0.28385037E-01  0.15121789E-01 -0.55144074E-02
  0.41800233E-02  0.22329409E-01  0.12412680E-01
 -0.93949424E-02 -0.66442731E-02  0.14057061E-01
  0.10242469E-01  0.10535362E-01 -0.12697356E-01
 -0.10758300E-01 -0.19933204E-01  0.19495199E-01
 -0.39674806E-02  0.68057467E-02  0.12092268E-01
  0.33893605E-02  0.23996023E-02 -0.27081857E-03
 -0.38967271E-02 -0.14238603E-03  0.24135610E-02
 -0.29160363E-02  0.39935528E-02  0.27132738E-03
  0.72860736E-02 -0.94584740E-03 -0.51934077E-02
  0.84565401E-02 -0.12745684E-01  0.25783458E-02
 -0.81961750E-02  0.13651627E-01 -0.13062775E-02
 -0.10254143E-01 -0.65470941E-02 -0.35123838E-02
  0.12095888E-01  0.83209829E-02 -0.54036159E-03
 -0.25219107E-02  0.17028793E-02  0.29227460E-02
  0.38366094E-02 -0.19331682E-04 -0.36039162E-02
  0.31361104E-02 -0.97363259E-03 -0.19088153E-02
 -0.49980728E-02  0.14404782E-02  0.44255536E-02
 -0.34827762E-02 -0.17657203E-01  0.10145395E-02
  0.35418887E-02  0.18612189E-01 -0.30856920E-02
  0.20221520E-02 -0.17073062E-01 -0.78015157E-03
 -0.31864119E-02  0.23052350E-01  0.37746641E-02
 -0.63253873E-02 -0.14291302E-02 -0.40207086E-02
  0.62328185E-02  0.29059867E-02  0.28064928E-02
  0.13690867E-01  0.74295138E-02 -0.41499658E-02
 -0.81317698E-02  0.19439371E-02  0.83246194E-03
  0.12237871E-01 -0.93762476E-02  0.29007922E-02
 -0.12064797E-01  0.96602354E-02 -0.28670313E-03
 -0.85656040E-02 -0.62307952E-02  0.56489832E-02
  0.13706259E-01  0.65608423E-02  0.46825998E-03
  0.15453017E-01  0.17287127E-02  0.15047111E-01
 -0.11997676E-02 -0.11461245E-01 -0.35010856E-01
  0.20959137E-01  0.15021670E-01 -0.11451807E-01
  0.38729907E-02 -0.24497256E-02  0.43290786E-02
  0.12370530E-02  0.16731911E-01  0.63573147E-02
 -0.74793133E-02  0.10809674E-02 -0.11340882E-02
  0.13413213E-01 -0.11567797E-01  0.72922502E-02
  0.18379786E-01 -0.96412404E-02  0.30007664E-02
 -0.87211114E-02  0.37819076E-01  0.74640383E-02
  0.98581160E-02 -0.52313493E-01 -0.28098649E-02
 -0.75794290E-02  0.18524519E-01  0.75214132E-02
 -0.14520987E-01 -0.18340728E-01 -0.21223831E-02
 -0.47886282E-02  0.48730009E-02  0.96701598E-02
  0.73971020E-02 -0.73530047E-02 -0.83476624E-02
  0.67709749E-02  0.10228857E-01 -0.20404771E-01
 -0.77998943E-02 -0.82525276E-02  0.13096991E-01
 -0.75422083E-02 -0.42270088E-02 -0.38586377E-03
  0.34976185E-02  0.21982500E-02  0.58732638E-03
  0.11649698E-01 -0.17547599E-02 -0.53757219E-02
 -0.10571919E-01 -0.66573019E-03 -0.14521459E-02
  0.92970585E-02 -0.22433827E-02 -0.12329818E-01
 -0.80485594E-02  0.28658603E-02  0.67693965E-02
 -0.54075744E-02  0.15287502E-02  0.69037365E-02
 -0.10562774E-01 -0.65267834E-02  0.40805651E-03
 -0.48929764E-02  0.21425116E-01  0.75710668E-02
  0.56751185E-02 -0.20558238E-01 -0.86359308E-02
 -0.41850981E-03  0.21224615E-01 -0.98670810E-02
 -0.70630599E-02 -0.26100994E-01  0.81497937E-02
  0.10850380E-01  0.38110534E-02 -0.41470013E-02
 -0.10611680E-01 -0.73837472E-02 -0.98108905E-04
  0.18442743E-02  0.13403461E-01  0.95013861E-02
  0.10420699E-01 -0.45807862E-02 -0.49226240E-02
 -0.14349075E-01  0.18458361E-02  0.80710689E-03
  0.11598311E-01 -0.33143744E-02  0.52902828E-03
  0.77857831E-02  0.47434864E-02  0.80280358E-02
 -0.10892373E-01  0.98885293E-03 -0.60119414E-02
  0.22798844E-02 -0.30838899E-02  0.36501770E-02
 -0.29983535E-02  0.33286429E-02 -0.31891220E-02
 -0.28184969E-02 -0.14436919E-02 -0.45368790E-02
  0.32572336E-02  0.42725956E-02  0.26457402E-02
 -0.43731153E-03 -0.62983292E-02  0.33163772E-02
  0.21240348E-03  0.61872277E-02 -0.21782109E-02
  0.10775705E-02 -0.59739947E-02 -0.43737251E-02
  0.68303782E-03  0.64375689E-02  0.16690195E-02
  0.15678358E-02 -0.96634754E-02 -0.11372282E-02
 -0.76458573E-03  0.90532466E-02  0.17260851E-02
 -0.29191715E-02 -0.85057972E-02  0.73746034E-03
  0.24293191E-02  0.74059189E-02 -0.22169145E-02
  0.21153487E-02  0.77282773E-03  0.23264125E-02
 -0.13693388E-02 -0.18619715E-03 -0.21198977E-02
 -0.50737869E-02  0.53503240E-03 -0.21442108E-02
  0.20848967E-02 -0.17232871E-02  0.29421006E-02
 -0.19270198E-02 -0.32255949E-02 -0.29628228E-02
  0.28281145E-02  0.39861977E-02  0.28383403E-02
  0.64137669E-03 -0.51001644E-02  0.24134480E-02
 -0.30595250E-02  0.43825677E-02 -0.22111039E-02
  0.66143582E-03 -0.54487134E-02  0.26590428E-02
 -0.12804518E-02  0.56939735E-02 -0.27956111E-02
 -0.76019935E-03 -0.58907587E-02 -0.25602356E-02
  0.54985922E-03  0.82427238E-02  0.30052268E-02
  0.63140870E-02 -0.38912922E-02  0.12636676E-02
 -0.65032269E-02  0.53694295E-02 -0.60628236E-03
 -0.55769513E-02 -0.36097706E-02 -0.15502974E-02
  0.67125562E-02  0.34016121E-02  0.96839568E-03
  0.56650850E-02  0.21779860E-02 -0.40165037E-02
 -0.43998525E-02 -0.27451423E-02  0.34002035E-02
 -0.36704518E-02  0.19922723E-02  0.14303579E-02
  0.44743641E-02 -0.45604161E-02 -0.41814847E-02
 -0.43956338E-03 -0.45969005E-02 -0.40279579E-03
  0.19664913E-02  0.40002461E-02  0.51936899E-03
  0.37807561E-02 -0.20283961E-02 -0.34691153E-02
 -0.29095724E-02  0.32677816E-02 -0.92407634E-03
 -0.20558750E-02 -0.13091450E-01 -0.58864771E-02
 -0.84963930E-03  0.13675883E-01  0.58488969E-02
  0.18391506E-02 -0.11950037E-01  0.35002416E-02
 -0.28081881E-02  0.93839325E-02 -0.76170101E-02
  0.15954314E-02 -0.12265532E-01 -0.54887728E-02
 -0.41505446E-02  0.11281688E-01  0.51463916E-02
 -0.94043949E-03 -0.58641765E-02  0.85952031E-02
  0.14655310E-02  0.59253094E-02 -0.59562844E-02
  0.17133905E-02  0.59053950E-03 -0.95980086E-02
 -0.21808308E-02  0.29151189E-03  0.75180105E-02
 -0.24024864E-02 -0.62699990E-03  0.76267323E-02
 -0.19997821E-02 -0.83721046E-02 -0.64747115E-02
  0.37151927E-02  0.96209284E-02 -0.67185732E-02
 -0.31784688E-02 -0.94548701E-02  0.56106000E-02
 -0.49886973E-02  0.78725666E-02  0.19754413E-02
  0.20813466E-02 -0.11961412E-01 -0.35530760E-02
 -0.19205819E-02 -0.98485983E-03 -0.92676559E-02
  0.23560401E-03 -0.17622039E-02  0.81817793E-02
  0.25438794E-02 -0.16691246E-02  0.10473094E-01
  0.34931024E-02  0.28862272E-02 -0.92501897E-02
 
           1
   1.00000000000000     
  0.10000000E+01  0.00000000E+00  0.00000000E+00  0.00000000E+00
  0.50272968E+00  0.57707058E+00  0.24608667E+00
  0.49763529E+00  0.42088096E+00  0.75274156E+00
  0.76882547E-03  0.75670675E-01  0.25663780E+00
  0.71758704E-03  0.92596351E+00  0.74468754E+00
  0.45776083E+00  0.59867873E+00  0.13067406E+00
  0.53485418E+00  0.39954793E+00  0.86977108E+00
  0.36626506E-01  0.94741365E-01  0.36785042E+00
  0.95819645E+00  0.90304908E+00  0.63196901E+00
  0.54952765E+00  0.48337133E+00  0.36698434E+00
  0.44716772E+00  0.50847639E+00  0.63391483E+00
  0.95539336E+00  0.97980124E+00  0.13485520E+00
  0.59375723E-01  0.71937745E-02  0.86571077E+00
  0.21841131E+00  0.34934183E+00  0.21415591E+00
  0.78764768E+00  0.63948408E+00  0.78422229E+00
  0.27672487E+00  0.85098404E+00  0.28536221E+00
  0.71595861E+00  0.14162044E+00  0.71584299E+00
  0.81458330E+00  0.82117869E+00  0.27319223E+00
  0.17950637E+00  0.17712997E+00  0.72780449E+00
  0.67876441E+00  0.32591574E+00  0.22817426E+00
  0.32674292E+00  0.67512808E+00  0.76930530E+00
  0.83932750E+00  0.34630873E+00  0.42917004E+00
  0.17149157E+00  0.65912065E+00  0.57181279E+00
  0.64585972E+00  0.84223531E+00  0.69989475E-01
  0.32805814E+00  0.15659386E+00  0.92940801E+00
  0.60506798E+00  0.82015537E+00  0.55406218E+00
  0.38568613E+00  0.19224759E+00  0.44367298E+00
  0.88411401E+00  0.30512129E+00  0.94860533E+00
  0.75141328E-01  0.71849705E+00  0.53422404E-01
  0.56822566E-01  0.51701830E+00  0.65053305E+00
  0.95122857E+00  0.48431100E+00  0.35040755E+00
  0.45254489E+00  0.29518779E-01  0.85402854E+00
  0.55279405E+00  0.98294308E+00  0.14937621E+00
  0.43846094E+00  0.11036551E+00  0.35241667E+00
  0.53372770E+00  0.89260249E+00  0.64358730E+00
  0.55263085E-01  0.61271430E+00  0.14725467E+00
  0.96386215E+00  0.39431755E+00  0.85153277E+00
  0.17007183E+00  0.49200007E+00  0.64444817E+00
  0.84061278E+00  0.49173653E+00  0.36174705E+00
  0.34441953E+00  0.98961109E+00  0.85990000E+00
  0.66184207E+00  0.98844483E+00  0.13715338E+00
  0.57551452E-01  0.53436890E+00  0.68770758E+00
  0.93447492E+00  0.48227677E+00  0.31279066E+00
  0.44432384E+00  0.58286344E-01  0.81720287E+00
  0.57146377E+00  0.98020054E+00  0.18718925E+00
  0.29410286E-01  0.61422102E+00  0.63273766E+00
  0.99520233E+00  0.38538102E+00  0.36308208E+00
  0.47187696E+00  0.12655283E+00  0.87294585E+00
  0.50680500E+00  0.88406277E+00  0.13661101E+00
  0.66132820E+00  0.46285139E+00  0.48122672E+00
  0.34036384E+00  0.53524144E+00  0.51866793E+00
  0.83639815E+00  0.98370414E+00  0.24716822E-01
  0.16477849E+00  0.22225099E-01  0.98234938E+00
  0.70773165E+00  0.47405775E+00  0.57237593E+00
  0.29080406E+00  0.52759733E+00  0.42726633E+00
  0.81214754E+00  0.11940191E-01  0.93489030E+00
  0.21677199E+00  0.11941591E-01  0.73883999E-01
  0.15347019E+00  0.27135970E+00  0.57003727E+00
  0.84919443E+00  0.73598638E+00  0.43247080E+00
  0.38210365E+00  0.77488149E+00  0.92051783E+00
  0.64318101E+00  0.24600404E+00  0.68850895E-01
  0.95657692E-01  0.25315249E+00  0.47980618E+00
  0.91240257E+00  0.75392562E+00  0.52266326E+00
  0.40835030E+00  0.74937687E+00  0.95550618E-02
  0.57939170E+00  0.26687664E+00  0.97861665E+00
  0.98779471E+00  0.30155360E+00  0.65457385E+00
  0.99418618E+00  0.70677053E+00  0.34841286E+00
  0.54803993E+00  0.82710549E+00  0.84346870E+00
  0.51299974E+00  0.20535171E+00  0.15187676E+00
  0.83343081E+00  0.42537117E+00  0.64168184E+00
  0.16335091E+00  0.59948504E+00  0.35764171E+00
  0.68789648E+00  0.96702227E+00  0.85808673E+00
  0.34199394E+00  0.10021147E+00  0.14434489E+00
  0.43689904E+00  0.21555449E+00  0.36626727E+00
  0.52887031E+00  0.78127655E+00  0.63577759E+00
  0.13532985E+00  0.52716025E+00  0.15418850E+00
  0.97838893E+00  0.34380794E+00  0.81956507E+00
  0.34845447E+00  0.49517006E-01  0.36139995E+00
  0.62107356E+00  0.93961607E+00  0.62716786E+00
  0.58156529E-01  0.66807437E+00  0.17939763E+00
  0.91446239E+00  0.32341467E+00  0.87357913E+00
  0.42015099E+00  0.12198540E+00  0.31479047E+00
  0.56212806E+00  0.90690332E+00  0.68106314E+00
  0.90663427E-01  0.68677275E+00  0.12319739E+00
  0.89041452E+00  0.48167220E+00  0.84306112E+00
  0.43457934E+00  0.72149975E+00  0.47400405E+00
  0.56756897E+00  0.28385554E+00  0.52425246E+00
  0.10907878E+00  0.24148658E+00  0.26446124E-01
  0.89473407E+00  0.78176213E+00  0.96581683E+00
  0.43401751E+00  0.82115927E+00  0.39497292E+00
  0.55565522E+00  0.18576586E+00  0.60476724E+00
  0.93719610E-01  0.34339870E+00  0.10747153E+00
  0.91882738E+00  0.66239030E+00  0.89134144E+00
  0.81027341E+00  0.10789729E+00  0.44989358E+00
  0.17979569E+00  0.90427646E+00  0.54578319E+00
  0.69965648E+00  0.60467133E+00  0.50681511E-01
  0.30116824E+00  0.41014826E+00  0.96262331E+00
  0.82516176E+00  0.98764372E+00  0.53135723E+00
  0.17935250E+00  0.20163948E-01  0.46351104E+00
  0.69921293E+00  0.48307679E+00  0.96839147E+00
  0.29878481E+00  0.55571069E+00  0.36758111E-01
  0.67868330E+00  0.12842689E+00  0.35958673E+00
  0.29064125E+00  0.87431863E+00  0.62993276E+00
  0.81293353E+00  0.64739491E+00  0.13077536E+00
  0.19780964E+00  0.35055771E+00  0.87765466E+00
  0.59554273E+00  0.95516580E+00  0.33943491E+00
  0.36882372E+00  0.39888848E-01  0.65852544E+00
  0.87875700E+00  0.47734391E+00  0.15953024E+00
  0.15285269E+00  0.52304505E+00  0.84764617E+00
  0.87304373E+00  0.35282114E+00  0.47872013E+00
  0.13253188E+00  0.65018678E+00  0.52234697E+00
  0.62685372E+00  0.86250159E+00  0.20270731E-01
  0.36691257E+00  0.14715362E+00  0.97866662E+00
  0.76207647E+00  0.41639164E+00  0.50235420E+00
  0.24051400E+00  0.58431948E+00  0.49793187E+00
  0.74111434E+00  0.93645172E+00  0.11348296E-02
  0.26310059E+00  0.74014872E-01  0.30115567E-02
  0.78935197E+00  0.41967703E+00  0.55216613E+00
  0.21113823E+00  0.58259535E+00  0.44818277E+00
  0.72921871E+00  0.94677713E+00  0.95101813E+00
  0.29255940E+00  0.71870008E-01  0.52923532E-01
  0.93223589E+00  0.36990882E+00  0.57765374E+00
  0.68043382E-01  0.63494339E+00  0.42373335E+00
  0.59838094E+00  0.88827575E+00  0.92111679E+00
  0.43159680E+00  0.13306196E+00  0.77281711E-01
  0.43235637E-01  0.30657885E+00  0.55120660E+00
  0.95947400E+00  0.69899535E+00  0.45084762E+00
  0.48365804E+00  0.81608532E+00  0.94290457E+00
  0.53592815E+00  0.20348264E+00  0.50177999E-01
  0.12681429E-01  0.29920307E+00  0.50086047E+00
  0.99276594E+00  0.70581029E+00  0.50110942E+00
  0.49639241E+00  0.80537417E+00  0.99298956E+00
  0.50247500E+00  0.21166604E+00  0.99999128E+00
  0.94773551E+00  0.39514635E+00  0.63274715E+00
  0.48680979E-01  0.61552868E+00  0.36856645E+00
  0.57935724E+00  0.92007383E+00  0.86687313E+00
  0.45521877E+00  0.11465995E+00  0.13235664E+00
  0.62310903E+00  0.85847837E+00  0.50773526E+00
  0.37625130E+00  0.15055274E+00  0.49014699E+00
  0.89968417E+00  0.36030066E+00  0.99489165E+00
  0.94796470E-01  0.67258931E+00  0.74561758E-02
  0.52044278E+00  0.80503041E+00  0.46937214E+00
  0.47987150E+00  0.20217193E+00  0.52883688E+00
  0.18727918E-01  0.32001264E+00  0.31331027E-01
  0.98814871E+00  0.70285249E+00  0.96635374E+00
  0.51863527E+00  0.86713727E+00  0.42391948E+00
  0.47343319E+00  0.14321537E+00  0.57469780E+00
  0.11057781E-01  0.38253570E+00  0.76874279E-01
  0.99909470E+00  0.62824191E+00  0.92327618E+00
  0.61406363E+00  0.98493826E+00  0.41660789E+00
  0.37030719E+00  0.30110681E-01  0.58038850E+00
  0.89578284E+00  0.48575933E+00  0.83042233E-01
  0.10715392E+00  0.51639488E+00  0.92179976E+00
  0.72859045E+00  0.25079939E-01  0.45518554E+00
  0.26237068E+00  0.98641966E+00  0.54073359E+00
  0.78556621E+00  0.52693941E+00  0.44498851E-01
  0.21351724E+00  0.49060530E+00  0.96327102E+00
  0.74061684E+00  0.95557885E+00  0.50050977E+00
  0.25968405E+00  0.50929680E-01  0.49548773E+00
  0.78479147E+00  0.46032351E+00  0.99993190E+00
  0.21537226E+00  0.57535516E+00  0.47114503E-02
  0.59457907E+00  0.43408079E-01  0.36556093E+00
  0.37745892E+00  0.96054108E+00  0.62966969E+00
  0.89679700E+00  0.55817836E+00  0.13178400E+00
  0.11922403E+00  0.44399893E+00  0.87379398E+00
  0.12896621E-03  0.22449900E-03 -0.54797904E-04
 -0.10762369E-03 -0.23046886E-03  0.47806921E-04
 -0.14430329E-03  0.16108011E-03  0.61652721E-04
  0.11937908E-03 -0.22866853E-03 -0.53420327E-04
 -0.74362497E-04 -0.45336053E-03 -0.12792619E-04
  0.68964129E-04  0.47506971E-03  0.36354799E-04
  0.71338231E-04 -0.39903406E-03  0.30090308E-04
 -0.14513538E-03  0.39693094E-03 -0.29914339E-04
 -0.29395439E-03 -0.46690044E-03 -0.23745888E-04
  0.30205299E-03  0.41178037E-03  0.36136896E-04
  0.30125611E-03 -0.47059858E-03  0.17147592E-04
 -0.34401559E-03  0.42837541E-03 -0.43691538E-04
 -0.88091898E-04  0.34647744E-03  0.16151772E-04
  0.85807322E-04 -0.38927500E-03 -0.20745887E-04
  0.95464465E-04  0.39622177E-03 -0.89404900E-05
 -0.18704191E-04 -0.28929013E-03  0.50134801E-04
  0.96215116E-04  0.36236662E-03 -0.36739753E-04
 -0.99052036E-04 -0.25437058E-03  0.34355343E-04
 -0.94134440E-04  0.24468984E-03  0.55744740E-04
  0.17935075E-03 -0.20334321E-03 -0.28055604E-04
  0.37994518E-03 -0.42058160E-03  0.79041427E-04
 -0.41794787E-03  0.61485128E-03 -0.80758306E-04
 -0.49182631E-03  0.11725068E-03 -0.93871458E-04
  0.46141142E-03  0.39155953E-03  0.18091843E-04
  0.63768848E-03  0.54679296E-03 -0.38915137E-04
 -0.98961401E-03 -0.33022072E-03  0.10558584E-03
 -0.63012131E-03 -0.13896575E-03  0.12900090E-03
  0.72076167E-03  0.12613602E-03 -0.14800197E-03
 -0.15021365E-03 -0.26213905E-03  0.25084150E-03
  0.20722675E-03  0.36007113E-03 -0.26124916E-03
  0.22159008E-04 -0.26016115E-03 -0.24509615E-03
  0.85271172E-04  0.26965034E-03  0.19515324E-03
 -0.25538113E-03  0.50146893E-03  0.17160146E-03
  0.25198554E-03 -0.12288454E-02 -0.26959860E-03
  0.49163208E-03  0.79701377E-03  0.41420310E-04
 -0.19289250E-03 -0.50811980E-03 -0.37280735E-05
 -0.44885682E-04  0.15791859E-02 -0.22307372E-03
  0.30337865E-03 -0.15571527E-02  0.12338650E-03
 -0.72199433E-03 -0.33940232E-03 -0.10128204E-02
 -0.30581179E-03 -0.15738148E-02 -0.20882803E-03
 -0.14921631E-03 -0.21508390E-02  0.57949830E-03
 -0.60588892E-03  0.23388405E-02 -0.41811682E-03
  0.31809613E-02  0.17500655E-02 -0.25407539E-03
  0.65324177E-03  0.24235082E-02  0.45032632E-03
 -0.81076467E-03 -0.66256838E-03  0.48983278E-03
  0.88929585E-03  0.11156434E-02 -0.46545533E-03
 -0.96704614E-03 -0.21021525E-02  0.70141482E-03
 -0.19656437E-03  0.66955836E-03  0.42677946E-03
  0.62723282E-03  0.18041663E-03  0.36738735E-04
 -0.66848022E-03  0.50806347E-04  0.46554512E-04
 -0.54755550E-03  0.35072903E-03 -0.59728199E-04
  0.98461260E-03 -0.11437414E-04 -0.14398063E-03
  0.10248402E-02 -0.13075377E-02  0.77027864E-04
 -0.93867635E-03  0.13749461E-02 -0.39501756E-04
 -0.13044901E-02 -0.66853392E-03 -0.93852979E-04
  0.13730397E-02  0.78798648E-03 -0.23230699E-04
 -0.40017584E-03  0.27513088E-03  0.78241559E-04
  0.52790311E-03 -0.96615875E-04 -0.10580264E-03
  0.47886270E-03 -0.55191175E-05 -0.36223412E-04
 -0.65630644E-03  0.34507350E-04  0.13488032E-03
 -0.44597847E-03 -0.18533535E-02  0.92788940E-04
  0.41663884E-03  0.19566958E-02 -0.17140786E-03
  0.29677509E-03 -0.17827962E-02 -0.86365639E-04
 -0.35293323E-03  0.24394788E-02  0.19314096E-03
 -0.77117957E-03 -0.11549245E-03 -0.12998033E-03
  0.74270109E-03  0.28728481E-03  0.89450343E-04
  0.14106862E-02  0.78666795E-03 -0.17617804E-03
 -0.88827538E-03  0.15152383E-03  0.40451416E-04
  0.13232817E-02 -0.96821488E-03  0.83734330E-04
 -0.12873174E-02  0.10355489E-02  0.15256350E-04
 -0.75801662E-03 -0.60494704E-03  0.23769935E-03
  0.14830011E-02  0.71201390E-03 -0.13795149E-04
  0.20001454E-02  0.32776497E-03  0.54190478E-03
 -0.72298440E-03 -0.12928671E-02 -0.12844192E-02
  0.22912387E-02  0.14220291E-02 -0.40597187E-03
  0.69454020E-03 -0.16853382E-03  0.18090696E-03
  0.29608684E-03  0.17425230E-02  0.20202822E-03
 -0.77251790E-03  0.20080436E-03 -0.67023454E-04
  0.15908532E-02 -0.12412903E-02  0.23608286E-03
  0.20694694E-02 -0.10533716E-02  0.12889850E-03
 -0.80177305E-03  0.40596371E-02  0.23684461E-03
  0.90607607E-03 -0.55132247E-02 -0.52911918E-04
 -0.75380802E-03  0.21303675E-02  0.28480930E-03
 -0.15520231E-02 -0.19694347E-02 -0.34074871E-04
 -0.65021563E-03  0.30914217E-03  0.31402668E-03
  0.97027960E-03 -0.56648174E-03 -0.27702029E-03
  0.74611915E-03  0.88189534E-03 -0.71255759E-03
 -0.95806742E-03 -0.67107122E-03  0.41630386E-03
 -0.10569865E-02 -0.64342205E-03 -0.16912861E-04
  0.57435269E-03  0.39370573E-03  0.32772769E-04
  0.13500209E-02 -0.36041951E-03 -0.16068104E-03
 -0.13528523E-02  0.69275685E-04 -0.81933956E-04
  0.61678634E-03 -0.42727347E-03 -0.42165894E-03
 -0.56338522E-03  0.49365841E-03  0.22668940E-03
 -0.22879382E-03 -0.71495508E-04  0.24625642E-03
 -0.13557424E-02 -0.60480348E-03  0.18486682E-04
 -0.50717105E-03  0.22097989E-02  0.24648188E-03
  0.59444791E-03 -0.21079323E-02 -0.28132475E-03
 -0.12024891E-03  0.21901851E-02 -0.31721916E-03
 -0.78085156E-03 -0.27163786E-02  0.22620280E-03
  0.10564126E-02  0.45410094E-03 -0.14889169E-03
 -0.11414405E-02 -0.79929992E-03 -0.25529298E-04
  0.34539768E-03  0.13869759E-02  0.32809775E-03
  0.10683090E-02 -0.48201213E-03 -0.16526448E-03
 -0.18125394E-02  0.14107735E-03  0.36089009E-05
  0.15145480E-02 -0.32869486E-03  0.71581040E-04
  0.11824923E-02  0.36779787E-03  0.30470657E-03
 -0.14900056E-02  0.22024025E-03 -0.24617322E-03
  0.31249036E-03 -0.33478753E-03  0.14030185E-03
 -0.39254956E-03  0.35910486E-03 -0.12446948E-03
 -0.38627051E-03 -0.14558461E-03 -0.17308773E-03
  0.41102810E-03  0.45460876E-03  0.10143624E-03
 -0.31551927E-05 -0.67263256E-03  0.11951183E-03
 -0.47196332E-05  0.65980624E-03 -0.80136629E-04
  0.57400047E-04 -0.64068403E-03 -0.15355259E-03
  0.94751430E-04  0.68716447E-03  0.59911552E-04
  0.10621562E-03 -0.10554070E-02 -0.53514833E-04
 -0.75113953E-05  0.99291314E-03  0.75621651E-04
 -0.25682204E-03 -0.92431111E-03  0.35245448E-04
  0.18574535E-03  0.80977862E-03 -0.91929950E-04
  0.30920053E-03  0.64571745E-04  0.80106044E-04
 -0.21906522E-03 -0.42167727E-05 -0.71614504E-04
 -0.63522925E-03  0.33661273E-04 -0.76799558E-04
  0.31211475E-03 -0.16369760E-03  0.10282437E-03
 -0.22610842E-03 -0.37666221E-03 -0.11638064E-03
  0.32974452E-03  0.45896384E-03  0.11193320E-03
  0.83170001E-04 -0.56967757E-03  0.91687563E-04
 -0.34905086E-03  0.49863057E-03 -0.89474005E-04
  0.12893345E-03 -0.59022819E-03  0.92102350E-04
 -0.19931471E-03  0.61621724E-03 -0.97605368E-04
 -0.14316808E-03 -0.62828314E-03 -0.92212084E-04
  0.12208595E-03  0.89333657E-03  0.10570503E-03
  0.74509072E-03 -0.42128595E-03  0.53863065E-04
 -0.75017797E-03  0.58810150E-03 -0.30018358E-04
 -0.66861759E-03 -0.39220340E-03 -0.62947623E-04
  0.78046424E-03  0.37739293E-03  0.44035148E-04
  0.57016351E-03  0.22168579E-03 -0.14054562E-03
 -0.43365981E-03 -0.27850144E-03  0.12012065E-03
 -0.38965328E-03  0.21224565E-03  0.54872971E-04
  0.44256417E-03 -0.45288826E-03 -0.14405610E-03
 -0.37619110E-04 -0.48236632E-03 -0.19113705E-04
  0.22865861E-03  0.41914766E-03  0.23445983E-04
  0.41149145E-03 -0.21522934E-03 -0.12364480E-03
 -0.34255115E-03  0.33496561E-03 -0.38675240E-04
 -0.31074943E-03 -0.14011285E-02 -0.21119860E-03
 -0.13716547E-04  0.14695067E-02  0.21336173E-03
  0.27771684E-03 -0.12750637E-02  0.12731405E-03
 -0.44137517E-03  0.99975612E-03 -0.27713658E-03
  0.85681555E-04 -0.12808352E-02 -0.20325986E-03
 -0.38370125E-03  0.11983670E-02  0.18718527E-03
  0.75289449E-05 -0.62794343E-03  0.30422368E-03
  0.68549976E-04  0.60698175E-03 -0.21354284E-03
  0.69495858E-04  0.95184586E-04 -0.34481354E-03
 -0.15547410E-03  0.38810019E-05  0.26755726E-03
 -0.16911893E-03 -0.37166656E-04  0.27438115E-03
 -0.33991067E-03 -0.92488278E-03 -0.22844088E-03
  0.36783265E-03  0.10135994E-02 -0.23877070E-03
 -0.31382528E-03 -0.10108095E-02  0.19832016E-03
 -0.54369863E-03  0.84694459E-03  0.68213289E-04
  0.21173604E-03 -0.12797360E-02 -0.12917036E-03
 -0.36372288E-03 -0.11813688E-03 -0.33818904E-03
  0.13900618E-03 -0.19596114E-03  0.29982923E-03
  0.44359854E-03 -0.13554239E-03  0.38276167E-03
  0.25979955E-03  0.29893926E-03 -0.34234498E-03
  0.00000000E+00  0.00000000E+00  0.00000000E+00
  0.00000000E+00  0.00000000E+00  0.00000000E+00
  0.00000000E+00  0.00000000E+00  0.00000000E+00
  0.00000000E+00  0.00000000E+00  0.00000000E+00
  0.00000000E+00  0.00000000E+00  0.00000000E+00
  0.00000000E+00  0.00000000E+00  0.00000000E+00
  0.00000000E+00  0.00000000E+00  0.00000000E+00
  0.00000000E+00  0.00000000E+00  0.00000000E+00
  0.00000000E+00  0.00000000E+00  0.00000000E+00
  0.00000000E+00  0.00000000E+00  0.00000000E+00
  0.00000000E+00  0.00000000E+00  0.00000000E+00
  0.00000000E+00  0.00000000E+00  0.00000000E+00
  0.00000000E+00  0.00000000E+00  0.00000000E+00
  0.00000000E+00  0.00000000E+00  0.00000000E+00
  0.00000000E+00  0.00000000E+00  0.00000000E+00
  0.00000000E+00  0.00000000E+00  0.00000000E+00
  0.00000000E+00  0.00000000E+00  0.00000000E+00
  0.00000000E+00  0.00000000E+00  0.00000000E+00
  0.00000000E+00  0.00000000E+00  0.00000000E+00
  0.00000000E+00  0.00000000E+00  0.00000000E+00
  0.00000000E+00  0.00000000E+00  0.00000000E+00
  0.00000000E+00  0.00000000E+00  0.00000000E+00
  0.00000000E+00  0.00000000E+00  0.00000000E+00
  0.00000000E+00  0.00000000E+00  0.00000000E+00
  0.00000000E+00  0.00000000E+00  0.00000000E+00
  0.00000000E+00  0.00000000E+00  0.00000000E+00
  0.00000000E+00  0.00000000E+00  0.00000000E+00
  0.00000000E+00  0.00000000E+00  0.00000000E+00
  0.00000000E+00  0.00000000E+00  0.00000000E+00
  0.00000000E+00  0.00000000E+00  0.00000000E+00
  0.00000000E+00  0.00000000E+00  0.00000000E+00
  0.00000000E+00  0.00000000E+00  0.00000000E+00
  0.00000000E+00  0.00000000E+00  0.00000000E+00
  0.00000000E+00  0.00000000E+00  0.00000000E+00
  0.00000000E+00  0.00000000E+00  0.00000000E+00
  0.00000000E+00  0.00000000E+00  0.00000000E+00
  0.00000000E+00  0.00000000E+00  0.00000000E+00
  0.00000000E+00  0.00000000E+00  0.00000000E+00
  0.00000000E+00  0.00000000E+00  0.00000000E+00
  0.00000000E+00  0.00000000E+00  0.00000000E+00
  0.00000000E+00  0.00000000E+00  0.00000000E+00
  0.00000000E+00  0.00000000E+00  0.00000000E+00
  0.00000000E+00  0.00000000E+00  0.00000000E+00
  0.00000000E+00  0.00000000E+00  0.00000000E+00
  0.00000000E+00  0.00000000E+00  0.00000000E+00
  0.00000000E+00  0.00000000E+00  0.00000000E+00
  0.00000000E+00  0.00000000E+00  0.00000000E+00
  0.00000000E+00  0.00000000E+00  0.00000000E+00
  0.00000000E+00  0.00000000E+00  0.00000000E+00
  0.00000000E+00  0.00000000E+00  0.00000000E+00
  0.00000000E+00  0.00000000E+00  0.00000000E+00
  0.00000000E+00  0.00000000E+00  0.00000000E+00
  0.00000000E+00  0.00000000E+00  0.00000000E+00
  0.00000000E+00  0.00000000E+00  0.00000000E+00
  0.00000000E+00  0.00000000E+00  0.00000000E+00
  0.00000000E+00  0.00000000E+00  0.00000000E+00
  0.00000000E+00  0.00000000E+00  0.00000000E+00
  0.00000000E+00  0.00000000E+00  0.00000000E+00
  0.00000000E+00  0.00000000E+00  0.00000000E+00
  0.00000000E+00  0.00000000E+00  0.00000000E+00
  0.00000000E+00  0.00000000E+00  0.00000000E+00
  0.00000000E+00  0.00000000E+00  0.00000000E+00
  0.00000000E+00  0.00000000E+00  0.00000000E+00
  0.00000000E+00  0.00000000E+00  0.00000000E+00
  0.00000000E+00  0.00000000E+00  0.00000000E+00
  0.00000000E+00  0.00000000E+00  0.00000000E+00
  0.00000000E+00  0.00000000E+00  0.00000000E+00
  0.00000000E+00  0.00000000E+00  0.00000000E+00
  0.00000000E+00  0.00000000E+00  0.00000000E+00
  0.00000000E+00  0.00000000E+00  0.00000000E+00
  0.00000000E+00  0.00000000E+00  0.00000000E+00
  0.00000000E+00  0.00000000E+00  0.00000000E+00
  0.00000000E+00  0.00000000E+00  0.00000000E+00
  0.00000000E+00  0.00000000E+00  0.00000000E+00
  0.00000000E+00  0.00000000E+00  0.00000000E+00
  0.00000000E+00  0.00000000E+00  0.00000000E+00
  0.00000000E+00  0.00000000E+00  0.00000000E+00
  0.00000000E+00  0.00000000E+00  0.00000000E+00
  0.00000000E+00  0.00000000E+00  0.00000000E+00
  0.00000000E+00  0.00000000E+00  0.00000000E+00
  0.00000000E+00  0.00000000E+00  0.00000000E+00
  0.00000000E+00  0.00000000E+00  0.00000000E+00
  0.00000000E+00  0.00000000E+00  0.00000000E+00
  0.00000000E+00  0.00000000E+00  0.00000000E+00
  0.00000000E+00  0.00000000E+00  0.00000000E+00
  0.00000000E+00  0.00000000E+00  0.00000000E+00
  0.00000000E+00  0.00000000E+00  0.00000000E+00
  0.00000000E+00  0.00000000E+00  0.00000000E+00
  0.00000000E+00  0.00000000E+00  0.00000000E+00
  0.00000000E+00  0.00000000E+00  0.00000000E+00
  0.00000000E+00  0.00000000E+00  0.00000000E+00
  0.00000000E+00  0.00000000E+00  0.00000000E+00
  0.00000000E+00  0.00000000E+00  0.00000000E+00
  0.00000000E+00  0.00000000E+00  0.00000000E+00
  0.00000000E+00  0.00000000E+00  0.00000000E+00
  0.00000000E+00  0.00000000E+00  0.00000000E+00
  0.00000000E+00  0.00000000E+00  0.00000000E+00
  0.00000000E+00  0.00000000E+00  0.00000000E+00
  0.00000000E+00  0.00000000E+00  0.00000000E+00
  0.00000000E+00  0.00000000E+00  0.00000000E+00
  0.00000000E+00  0.00000000E+00  0.00000000E+00
  0.00000000E+00  0.00000000E+00  0.00000000E+00
  0.00000000E+00  0.00000000E+00  0.00000000E+00
  0.00000000E+00  0.00000000E+00  0.00000000E+00
  0.00000000E+00  0.00000000E+00  0.00000000E+00
  0.00000000E+00  0.00000000E+00  0.00000000E+00
  0.00000000E+00  0.00000000E+00  0.00000000E+00
  0.00000000E+00  0.00000000E+00  0.00000000E+00
  0.00000000E+00  0.00000000E+00  0.00000000E+00
  0.00000000E+00  0.00000000E+00  0.00000000E+00
  0.00000000E+00  0.00000000E+00  0.00000000E+00
  0.00000000E+00  0.00000000E+00  0.00000000E+00
  0.00000000E+00  0.00000000E+00  0.00000000E+00
  0.00000000E+00  0.00000000E+00  0.00000000E+00
  0.00000000E+00  0.00000000E+00  0.00000000E+00
  0.00000000E+00  0.00000000E+00  0.00000000E+00
  0.00000000E+00  0.00000000E+00  0.00000000E+00
  0.00000000E+00  0.00000000E+00  0.00000000E+00
  0.00000000E+00  0.00000000E+00  0.00000000E+00
  0.00000000E+00  0.00000000E+00  0.00000000E+00
  0.00000000E+00  0.00000000E+00  0.00000000E+00
  0.00000000E+00  0.00000000E+00  0.00000000E+00
  0.00000000E+00  0.00000000E+00  0.00000000E+00
  0.00000000E+00  0.00000000E+00  0.00000000E+00
  0.00000000E+00  0.00000000E+00  0.00000000E+00
  0.00000000E+00  0.00000000E+00  0.00000000E+00
  0.00000000E+00  0.00000000E+00  0.00000000E+00
  0.00000000E+00  0.00000000E+00  0.00000000E+00
  0.00000000E+00  0.00000000E+00  0.00000000E+00
  0.00000000E+00  0.00000000E+00  0.00000000E+00
  0.00000000E+00  0.00000000E+00  0.00000000E+00
  0.00000000E+00  0.00000000E+00  0.00000000E+00
  0.00000000E+00  0.00000000E+00  0.00000000E+00
  0.00000000E+00  0.00000000E+00  0.00000000E+00
  0.00000000E+00  0.00000000E+00  0.00000000E+00
  0.00000000E+00  0.00000000E+00  0.00000000E+00
  0.00000000E+00  0.00000000E+00  0.00000000E+00
  0.00000000E+00  0.00000000E+00  0.00000000E+00
  0.00000000E+00  0.00000000E+00  0.00000000E+00
  0.00000000E+00  0.00000000E+00  0.00000000E+00
  0.00000000E+00  0.00000000E+00  0.00000000E+00
  0.00000000E+00  0.00000000E+00  0.00000000E+00
  0.00000000E+00  0.00000000E+00  0.00000000E+00
  0.00000000E+00  0.00000000E+00  0.00000000E+00
  0.00000000E+00  0.00000000E+00  0.00000000E+00
  0.00000000E+00  0.00000000E+00  0.00000000E+00
  0.00000000E+00  0.00000000E+00  0.00000000E+00
  0.00000000E+00  0.00000000E+00  0.00000000E+00
  0.00000000E+00  0.00000000E+00  0.00000000E+00
  0.00000000E+00  0.00000000E+00  0.00000000E+00
  0.00000000E+00  0.00000000E+00  0.00000000E+00
  0.00000000E+00  0.00000000E+00  0.00000000E+00
  0.00000000E+00  0.00000000E+00  0.00000000E+00
  0.00000000E+00  0.00000000E+00  0.00000000E+00
  0.00000000E+00  0.00000000E+00  0.00000000E+00
  0.00000000E+00  0.00000000E+00  0.00000000E+00
  0.00000000E+00  0.00000000E+00  0.00000000E+00
  0.00000000E+00  0.00000000E+00  0.00000000E+00
  0.00000000E+00  0.00000000E+00  0.00000000E+00
  0.00000000E+00  0.00000000E+00  0.00000000E+00
  0.00000000E+00  0.00000000E+00  0.00000000E+00
  0.00000000E+00  0.00000000E+00  0.00000000E+00
  0.00000000E+00  0.00000000E+00  0.00000000E+00
  0.00000000E+00  0.00000000E+00  0.00000000E+00
