2(C7 H10 N +), I4 Pb 2-                 
   1.00000000000000     
     9.1436996460000000    0.0000000000000000    0.0000000000000000
     0.0000000000000000    8.6683998108000004    0.0000000000000000
     0.0000000000000000    0.0000000000000000   28.5984001160000005
   Pb   I    N    H    C 
     4    16     8    80    56
Direct
  0.9893784403764787  0.5155629157987381  0.4949016312494743
  0.4959150165014033  0.4863049853086689  0.9990650715327803
  0.9874134394747996  0.9947173846893922  0.0028565662401795
  0.5056554437295369  0.9989326557706307  0.4986286694733006
  0.7825342870934089  0.7840604598228530  0.4622990504144862
  0.2709911294790894  0.2400714720871207  0.5369551438266110
  0.7358163715008321  0.2353605404862652  0.9613363834958434
  0.2016479151134203  0.7128825672532819  0.0432348117303366
  0.2389701335209171  0.2332659971179737  0.0348113640113890
  0.6921597340445487  0.7612758692448701  0.9530504137952840
  0.2795991692577426  0.7401289838156675  0.5255915694517016
  0.7749113045832938  0.2603241566242774  0.4557005182537231
  0.8796571060460966  0.4959669655254766  0.6044657634511760
  0.0938537732246248  0.5201011920575613  0.3918024664507294
  0.6355433112807088  0.4929942986367184  0.0991344055792714
  0.4044648973472806  0.4909966372800490  0.8963744238635991
  0.1162022235599287  0.9672418421805120  0.9020580572469703
  0.9169064466971562  0.0263863621449397  0.1072622550513173
  0.3751122494711624  0.0276598585857739  0.3950053629970918
  0.5979405822962778  0.9806603702412292  0.6009623370321713
  0.5303528644816409  0.4821569264860330  0.5897745812018478
  0.4378366120312556  0.4002459147346694  0.4252569279342238
  0.9797401869726986  0.4793868595740736  0.0997584030196868
  0.0256806455057067  0.5729879357896575  0.9255696609190638
  0.4929884650440993  0.0081380844742515  0.9055658126815218
  0.5712114794799783  0.9250950489012161  0.0798022029400945
  0.0400876984235151  0.0367444839895407  0.4134931612548131
  0.9614879211122560  0.1026223706565429  0.5909050238531109
  0.4944188581172200  0.4026964620121788  0.5655505145322175
  0.3521034091439583  0.3344211917084032  0.4108223413964113
  0.0623808274475202  0.3973505958450287  0.0938931183426769
  0.9742503311147817  0.5674225505420298  0.9567273402792509
  0.5674416756356614  0.1003033559118854  0.9091704746647030
  0.6829053387714391  0.9367679399021137  0.0882013201949101
  0.9457990679031779  0.9852346130749192  0.4281435437109108
  0.9224222240431880  0.0495995089921600  0.5614986729720022
  0.6444290912212137  0.4864139104204821  0.5882755261634902
  0.5187879935871478  0.3191541739034403  0.4353879226905137
  0.0102842615117731  0.5689859672848798  0.0765008569905829
  0.1405944155484903  0.5718861225701324  0.9305319266464740
  0.5382385521740235  0.9235296454472235  0.9275415371469877
  0.5405132979981422  0.8088932912249599  0.0825923700920300
  0.0677815042057625  0.1362980372169376  0.4313179237287931
  0.8949014765743249  0.1964722924744408  0.5981911696114293
  0.4856129530306940  0.5866331913231445  0.5799996692711753
  0.3918482426967475  0.4445668846174887  0.4551590631070054
  0.8775042021302357  0.4339368773774546  0.0910706386478546
  0.0083069615822921  0.6817122025288085  0.9102362215146810
  0.3898694128065161  0.0383452973702710  0.9190172856911859
  0.5602612278176514  0.9552066537380784  0.0457457328641944
  0.1287411828049307  0.9626343701419803  0.4175728812613582
  0.0645923099365219  0.1509306350842037  0.5820369854169413
  0.6061252169095497  0.4681882148598427  0.7271849113385662
  0.3640475771908129  0.6083171034256289  0.3139829276888025
  0.8943303629914419  0.4710416652314391  0.2368179911607809
  0.1664804734847039  0.4256099433504666  0.8079940612081211
  0.4215449520561302  0.9728064709705364  0.7605171460229403
  0.6572217270210449  0.1350112201985932  0.1894738101218773
  0.1301917214039207  0.9859043933994490  0.2762952507225749
  0.8775763103016653  0.8981973956065383  0.7175793087163325
  0.5245177636692596  0.6196991380516819  0.7918175993868590
  0.4132836033548687  0.5573778463088140  0.2327242433717230
  0.0116425838517720  0.3714611380412144  0.2998442281629662
  0.0995381585276810  0.5040721075706447  0.7283624838694748
  0.5250879988970403  0.1308172121195608  0.7037027564092848
  0.6477032045158486  0.0563963553226682  0.2699967165502704
  0.0287666071175299  0.8341976802858803  0.2184023215495862
  0.9363966081694212  0.9742436494473018  0.7940824644501312
  0.2966427802817272  0.7960680002310988  0.7830580932989935
  0.6217473132618866  0.3874935239237526  0.2105909864709530
  0.2604619583760466  0.2296668531795837  0.2904913692245870
  0.8773675517922090  0.6634209925845541  0.7141525444190630
  0.7388935116058154  0.3123863491090268  0.7258758898366904
  0.4463361794349048  0.8838621545097354  0.2981817398422253
  0.7906157034334639  0.6764828681134074  0.2348698676737549
  0.1354740316044621  0.1718479562793660  0.8075403548349668
  0.1924207990914037  0.8282272385737840  0.7035063859565525
  0.7693427820100585  0.2596464316040368  0.2739812333101457
  0.3506999579634062  0.1905987897603372  0.2079406237797377
  0.7390908276440320  0.7677976505021489  0.7844283641648159
  0.7883278805019200  0.3527388688094132  0.8133124176228559
  0.2832635590820790  0.7523751112237809  0.2374689911456255
  0.6838142869236358  0.6916521053200768  0.3165753573260492
  0.2334095119584557  0.3151329398051322  0.7365441518984209
  0.2742925823706794  0.6695526908659415  0.6390551707856797
  0.7172668208979935  0.3084059416110781  0.3562238004417013
  0.2393705425584246  0.3198128167493944  0.1430948197141328
  0.7973023855133360  0.6668295130677057  0.8615344294923463
  0.6726823733880735  0.1940102121610825  0.8693562337453596
  0.3083359097727313  0.8201417632642993  0.1550658733374312
  0.7748315485342576  0.8768544725051514  0.3714455863336726
  0.1439515675742269  0.2618422624568286  0.6597765372339628
  0.5488603540055719  0.3423542543963106  0.6518176454171638
  0.4250272204765494  0.6153433587532037  0.3913758393251857
  0.8781967603453238  0.5660493358322669  0.1606751534510854
  0.0956296150711600  0.3775402026749711  0.8874686246092949
  0.3601555290844852  0.9334472205399228  0.8502660859792643
  0.4976674613847950  0.1434303377833284  0.1068908535477765
  0.1086289503384686  0.1302908182443843  0.3494378730251851
  0.8754355838011684  0.9222345066783376  0.6329232541403960
  0.3666992734865965  0.3758438650584995  0.6306870874393132
  0.6068296972865643  0.5526172761762650  0.4102452323846025
  0.0575125949541999  0.6424664763736702  0.1503069802362237
  0.8978651237629373  0.3911750063930390  0.8924047234006416
  0.5255662683423404  0.8334219603728983  0.8563429260632035
  0.3631093957563740  0.9942412806453100  0.1032622425328285
  0.9209463544448766  0.1636481530650427  0.3630722044255196
  0.0738488384724206  0.9224313239235243  0.6247604668716150
  0.4499338931726947  0.5565770664713101  0.6758198670048617
  0.5327070922349703  0.4600864059378903  0.3434400021167623
  0.0528114400631481  0.4140817865098563  0.1820164857542679
  0.9877779998470162  0.5431960839825370  0.8411462466437882
  0.5436045639268036  0.0580481520044985  0.8212243904982387
  0.4844561358056588  0.9793716481759324  0.1646720101331186
  0.9638418309881015  0.9444347978449589  0.3312754854416366
  0.0025085903727051  0.0701640395925358  0.6799937059776233
  0.5165789223082127  0.5490158317365724  0.7211628187689286
  0.4519204034410200  0.5282729097771703  0.3063568444388727
  0.9958193426747810  0.4114846001830824  0.2278197931576610
  0.0759649831539940  0.5033410494826909  0.8025886816983361
  0.5066311105864685  0.0489348177673970  0.7732066855166326
  0.5777192824797914  0.0478485040307650  0.1987934139958716
  0.0303080469197532  0.9251719267928097  0.2867624390025080
  0.9493164683051134  0.9965388740174892  0.7205996370791176
  0.4673780282092914  0.6376335883829630  0.7591731806383074
  0.4806848570537373  0.5035513681843516  0.2591646730277273
  0.0659760100212593  0.3501579020736610  0.2668302962641173
  0.0310779951621474  0.5395514843747246  0.7571539885974292
  0.5691772441854638  0.1430628602798437  0.7388837193730814
  0.5678997816771830  0.0086177986373168  0.2457512070898545
  0.9700020556195323  0.8326090119193378  0.2512894725277672
  0.9893590405694046  0.0358666599183639  0.7658028376124988
  0.3450244181264666  0.7335828691025162  0.7539962408415783
  0.5974399710084483  0.4088940547748161  0.2470401278340023
  0.1983579882168487  0.2745335532317200  0.2610972089177209
  0.9065465969383465  0.6273079984144323  0.7491376975723288
  0.6813596855691181  0.2441925354692241  0.7517141320848231
  0.4571323178706317  0.9090701948057650  0.2611982817018307
  0.8430186938919110  0.7497616967414155  0.2606951588446156
  0.0963199324736492  0.1472412441966641  0.7726776300478249
  0.2852865170661940  0.7514316293649521  0.7089784610793353
  0.6799217779608835  0.3377385629588899  0.2829566703051973
  0.2498507803863698  0.2536350537729390  0.2141843519684789
  0.8273645976574825  0.6834344828607518  0.7879519447744399
  0.7116915640054283  0.2660749798910300  0.8007134931630745
  0.3660058932471232  0.8370632676653661  0.2276871823071662
  0.7807626913420042  0.7572030588682699  0.3069313457307221
  0.1504341140126501  0.2258135706797315  0.7326784107659380
  0.3337803992654444  0.6581014201500361  0.6719556413739080
  0.6479054398131167  0.3639222492327951  0.3300577981343236
  0.1830948376695579  0.3303763875133169  0.1765296333182033
  0.8663186683489885  0.6348841466647374  0.8323365971634559
  0.6446382090722015  0.1695189253303972  0.8333946422509160
  0.3814454868704995  0.8749473398678611  0.1804896587593752
  0.8355627711904934  0.8624485734248273  0.3391587207253219
  0.0994489297951030  0.1902985784515371  0.6879484847914465
  0.4738410661784504  0.4324007393627287  0.6387043153216878
  0.5035793208636252  0.5179738649272605  0.3928049536749301
  0.9897399899654825  0.5342137612575842  0.1492082613632280
  0.0008012737330744  0.4572640387339998  0.8873183154572634
  0.4781242528908491  0.9519584591590061  0.8571138162933947
  0.4775006022595319  0.0187152659394370  0.1130565285992780
  0.0097543192817570  0.0746234253612487  0.3630400330922459
  0.9753219873745237  0.9963705595476902  0.6320253862812369
 
 -0.13283912E-02  0.23513747E-02 -0.13195471E-02
  0.57752617E-03 -0.98693019E-03 -0.14340741E-02
 -0.16153190E-03  0.86018507E-03  0.18255072E-02
  0.43029231E-03 -0.22257832E-02  0.40666427E-04
  0.36879099E-03 -0.24292319E-02 -0.25486915E-02
 -0.14906395E-02  0.73820851E-03  0.32866087E-02
  0.15612943E-04  0.35823116E-02 -0.44376527E-02
  0.58187226E-03 -0.10551747E-02  0.32934521E-02
 -0.19661950E-03 -0.35461131E-02  0.37030602E-02
  0.46400983E-03  0.90037254E-03 -0.24444735E-02
  0.81576999E-03  0.22020211E-02  0.31779210E-02
 -0.13185830E-02 -0.10644774E-02 -0.31150283E-02
 -0.17710054E-02 -0.34655179E-03 -0.27305304E-02
  0.53132360E-02 -0.70779561E-03  0.80819799E-03
  0.60668035E-03  0.53839643E-03 -0.44621856E-02
 -0.32713816E-02  0.13962168E-02  0.12539333E-03
  0.12971182E-02 -0.13345181E-02  0.17116779E-02
 -0.15329142E-02 -0.16662856E-03 -0.56778321E-03
 -0.95152761E-03 -0.48548455E-03  0.17049888E-02
  0.42609718E-02  0.32349431E-03 -0.11078122E-02
  0.93573958E-02  0.52575267E-02  0.23988399E-02
 -0.59125432E-02  0.35811494E-03 -0.74179379E-02
 -0.41695928E-02 -0.63217071E-02 -0.15348263E-02
  0.11371097E-02  0.91734648E-02  0.30178767E-02
 -0.12223389E-02  0.89180714E-02  0.17461105E-02
 -0.44170372E-02 -0.83615824E-02 -0.54416031E-03
  0.28343727E-02 -0.83371634E-02  0.31762231E-02
 -0.24774321E-02  0.37326161E-02  0.47476345E-02
 -0.12550589E-01 -0.70731115E-02  0.12135549E-01
  0.23360650E-02  0.71780749E-02 -0.98251086E-02
 -0.30784770E-01 -0.33636558E-01 -0.73427830E-02
 -0.17581525E-01  0.12107948E-01  0.30161840E-02
 -0.42166909E-01  0.29285618E-01 -0.91587219E-03
 -0.56295840E-02 -0.62573614E-02 -0.16812038E-01
  0.26939189E-01 -0.35298808E-01 -0.33559057E-02
  0.83796556E-02 -0.14171940E-02 -0.10941474E-02
  0.10851171E-01 -0.17652508E-01 -0.15666264E-01
  0.29346112E-03  0.17257524E-01 -0.14702634E-03
  0.30733527E-01 -0.87324297E-02  0.71181001E-02
  0.46111780E-02 -0.20907630E-01  0.15358204E-01
  0.18681613E-01  0.23610279E-01 -0.35558093E-02
 -0.10108164E-01 -0.74733828E-03  0.27598125E-01
 -0.39522582E-01 -0.71192352E-03  0.90163720E-02
  0.14805331E-02  0.89509914E-02  0.29585030E-02
  0.28346935E-01  0.10773795E-01 -0.16756960E-01
 -0.53522993E-02  0.11860198E-01 -0.78725434E-02
 -0.19649264E-01  0.19743828E-01 -0.21782232E-01
  0.33267521E-01  0.16856419E-01  0.19281348E-02
 -0.34291412E-02 -0.17281288E-01  0.75411280E-02
 -0.27282809E-01 -0.32087099E-01 -0.71058303E-02
  0.29009318E-01  0.17259217E-01  0.56001952E-02
  0.61369940E-02 -0.59625262E-02  0.14679576E-01
  0.39157952E-02  0.10323982E-01  0.67544306E-02
 -0.15924277E-01  0.31310919E-02  0.27704166E-02
 -0.64549058E-02 -0.45505502E-03  0.13999094E-05
  0.12122839E-01 -0.56639547E-02  0.13759465E-01
 -0.71415089E-02 -0.14313970E-01  0.26413644E-01
 -0.67705579E-03  0.87800616E-02 -0.69063045E-02
  0.14655749E-01 -0.94935200E-02  0.10776808E-01
 -0.11067216E-01 -0.51622117E-02 -0.34916348E-02
 -0.36147876E-02  0.52033842E-02  0.87985763E-02
 -0.54158970E-02  0.31900907E-02  0.19046221E-03
  0.74675453E-02  0.50360632E-02  0.18234458E-01
  0.56166547E-02  0.14387533E-01 -0.53272481E-02
  0.10391410E-01 -0.53007299E-03 -0.74619320E-02
  0.10708236E-01  0.98869964E-03  0.15686659E-02
  0.94848477E-02 -0.17109179E-01 -0.36518546E-02
 -0.10239841E-04 -0.16173011E-01 -0.84221126E-03
  0.17172445E-02  0.78419330E-02 -0.81385024E-03
  0.24239091E-02  0.98212830E-02  0.80356008E-02
  0.52441774E-02 -0.80765434E-02 -0.50662477E-02
  0.12319398E-01  0.70060325E-02  0.63154852E-02
  0.84843354E-02 -0.70073789E-02  0.17513370E-02
  0.13087929E-01 -0.71979920E-02 -0.29000466E-02
 -0.29366194E-02 -0.17895522E-04 -0.15387627E-02
  0.72571626E-02 -0.53016408E-02 -0.41787373E-02
 -0.24652518E-02  0.49327534E-02  0.46822645E-02
  0.67505149E-02  0.61110316E-02  0.11955931E-01
 -0.17526777E-02 -0.17542084E-01 -0.97597682E-02
  0.10822676E-01  0.10407224E-01 -0.18569739E-02
 -0.68611566E-02  0.20237401E-01 -0.15823163E-01
 -0.54514029E-03  0.28441790E-02 -0.46616768E-02
 -0.20641653E-02 -0.14086129E-01  0.75340213E-02
 -0.55826189E-02  0.27940753E-02 -0.45806216E-02
  0.78607851E-02 -0.52358348E-02 -0.18716654E-01
  0.72639099E-02  0.13172187E-01  0.23764394E-01
  0.61198930E-03 -0.78151778E-02 -0.58626817E-02
 -0.15517347E-01 -0.11276322E-01  0.19529062E-02
  0.77457254E-02  0.29661244E-02  0.45208035E-02
 -0.10630605E-01  0.83181455E-02 -0.86394931E-02
 -0.95703125E-02  0.84614221E-02  0.47945844E-02
 -0.14003233E-01  0.34315949E-02 -0.16525900E-01
 -0.19781422E-01  0.14902894E-02  0.91642296E-03
  0.77506960E-02  0.65252315E-02 -0.80963799E-02
  0.92031005E-02  0.38356637E-02 -0.78913848E-02
 -0.26100405E-01 -0.33914189E-02  0.37845152E-01
  0.91149626E-04  0.17147725E-01 -0.10996283E-01
  0.28575066E-02 -0.19145364E-02 -0.60092375E-02
 -0.68294450E-04  0.21608027E-02  0.12745710E-01
  0.62503963E-02 -0.13055949E-02 -0.27423990E-03
 -0.17003008E-01  0.44051206E-01 -0.88315027E-02
 -0.63131148E-03  0.54682039E-02  0.11441193E-01
  0.12870733E-01 -0.14167769E-01 -0.13576932E-01
 -0.17654170E-01  0.11212725E-01  0.31762728E-02
 -0.75795378E-02 -0.47213244E-02  0.13732925E-02
 -0.75950649E-02  0.22048891E-02 -0.27982923E-02
 -0.13631060E-02 -0.89338010E-02  0.75861628E-02
  0.21684518E-02  0.15358517E-02  0.12126895E-01
  0.37385454E-03  0.80950190E-02  0.11076721E-02
  0.24393775E-02  0.35443940E-02  0.61562084E-02
  0.22317480E-04 -0.42695859E-02  0.32217761E-02
 -0.11071588E-02 -0.29230963E-02  0.60594523E-02
  0.74228527E-02 -0.12053189E-02  0.34266015E-02
 -0.32028577E-02  0.46516939E-02 -0.47157126E-02
 -0.42516085E-02  0.38552105E-03 -0.20500939E-02
  0.20036857E-02 -0.36406359E-02 -0.11154777E-02
 -0.11856398E-02  0.43246844E-02  0.21724610E-02
 -0.79988316E-02  0.29994032E-03  0.79343218E-02
 -0.36919634E-02 -0.59144515E-02  0.35468840E-02
  0.23031034E-02 -0.66963482E-02  0.84676920E-02
  0.85685685E-03 -0.19018808E-02  0.27329073E-02
  0.30229086E-02  0.27875159E-02 -0.98047697E-02
  0.15606966E-02 -0.47622582E-02 -0.13574716E-02
 -0.31978007E-02 -0.35066735E-02 -0.52649514E-02
 -0.38845647E-02  0.59036192E-02  0.28686846E-02
 -0.38582497E-03  0.44071864E-02  0.64538873E-02
  0.24057151E-02 -0.44196223E-03  0.69696704E-02
  0.25186846E-02 -0.35172212E-02  0.41004693E-02
 -0.17839841E-02 -0.26845579E-02 -0.25715863E-02
  0.33415551E-03  0.43761570E-02 -0.39909508E-02
  0.21701170E-02 -0.46789464E-02 -0.41476776E-02
  0.43308845E-02 -0.10744014E-01 -0.41005841E-02
 -0.18720493E-02  0.16231360E-02 -0.34712451E-02
  0.19063248E-02  0.12142137E-01  0.80942333E-02
  0.24200347E-02 -0.57270932E-02 -0.20555955E-02
  0.34072192E-02 -0.64929455E-03  0.42840954E-02
  0.15442354E-02 -0.51952491E-02  0.19513863E-02
  0.41572972E-02  0.38539241E-02 -0.25384556E-02
 -0.33806966E-02 -0.61223163E-03  0.20699223E-02
  0.62277931E-03 -0.90732375E-02 -0.36445897E-02
 -0.36747568E-02  0.20516019E-02  0.17160776E-02
  0.40001006E-02  0.86302450E-02  0.38176976E-02
  0.37139461E-02 -0.10565732E-01 -0.15331097E-02
  0.42623561E-02 -0.14480568E-03 -0.29865150E-02
 -0.78563996E-03  0.53516475E-02 -0.19729808E-02
  0.61774756E-03  0.56416120E-02  0.22428912E-03
 -0.47744499E-02 -0.10330189E-01  0.35320561E-02
 -0.27916993E-02 -0.19337437E-02 -0.42183020E-04
  0.13000998E-02  0.63183252E-02 -0.35564913E-02
  0.62969377E-03 -0.23472719E-02  0.90456658E-02
 -0.45967428E-02 -0.76825718E-02 -0.44507803E-03
  0.15119650E-02  0.17523963E-02  0.42338852E-02
 -0.16571217E-03  0.43138195E-02  0.23874983E-02
 -0.12888083E-02  0.98058631E-03 -0.15912258E-02
 -0.11822488E-02 -0.31015820E-02  0.29579038E-02
 -0.65480236E-02  0.56676786E-02 -0.24973625E-02
 -0.21426323E-02  0.10884094E-01 -0.78565169E-03
 -0.12736072E-02  0.78730611E-02 -0.10851954E-02
  0.31342447E-02 -0.57602054E-02 -0.39560792E-02
 -0.83310357E-02  0.25304984E-02  0.48001569E-02
 -0.27144676E-02  0.52587391E-02 -0.54638547E-03
 -0.31763583E-02  0.13691495E-02 -0.51036703E-02
 -0.35686294E-03 -0.81265768E-03  0.27898991E-02
 -0.28199135E-02  0.14458285E-02  0.17200168E-02
 
           1
   1.00000000000000     
  0.10000000E+01  0.00000000E+00  0.00000000E+00  0.00000000E+00
  0.98923316E+00  0.51583417E+00  0.49485549E+00
  0.49597818E+00  0.48619113E+00  0.99901493E+00
  0.98739577E+00  0.99481662E+00  0.29203987E-02
  0.50570250E+00  0.99867589E+00  0.49863009E+00
  0.78257462E+00  0.78378022E+00  0.46220993E+00
  0.27082811E+00  0.24015663E+00  0.53707007E+00
  0.73581808E+00  0.23577380E+00  0.96118121E+00
  0.20171155E+00  0.71276084E+00  0.43349974E-01
  0.23894863E+00  0.23285691E+00  0.34940849E-01
  0.69221048E+00  0.76137974E+00  0.95296494E+00
  0.27968839E+00  0.74038301E+00  0.52570269E+00
  0.77476710E+00  0.26020136E+00  0.45559160E+00
  0.87946342E+00  0.49592699E+00  0.60437029E+00
  0.94434855E-01  0.52001954E+00  0.39183073E+00
  0.63560966E+00  0.49305641E+00  0.98978376E-01
  0.40410712E+00  0.49115771E+00  0.89637881E+00
  0.11634408E+00  0.96708789E+00  0.90211791E+00
  0.91673880E+00  0.26367140E-01  0.10724240E+00
  0.37500819E+00  0.27603852E-01  0.39506498E+00
  0.59840658E+00  0.98069769E+00  0.60092360E+00
  0.53137624E+00  0.48276344E+00  0.58985846E+00
  0.43718999E+00  0.40028723E+00  0.42499754E+00
  0.97928418E+00  0.47865758E+00  0.99704735E-01
  0.25805005E-01  0.57404620E+00  0.92567519E+00
  0.49285478E+00  0.91668870E-02  0.90562687E+00
  0.57072841E+00  0.92413044E+00  0.79783175E-01
  0.40397679E-01  0.35782696E-01  0.41360422E+00
  0.96121698E+00  0.10305297E+00  0.59107103E+00
  0.49304626E+00  0.40188050E+00  0.56597486E+00
  0.35235889E+00  0.33524927E+00  0.41047879E+00
  0.59014053E-01  0.39347023E+00  0.93636363E-01
  0.97232753E+00  0.56881934E+00  0.95683281E+00
  0.56283009E+00  0.10368179E+00  0.90913845E+00
  0.68228966E+00  0.93604608E+00  0.87613454E-01
  0.94874527E+00  0.98116249E+00  0.42802620E+00
  0.92333866E+00  0.49436019E-01  0.56146041E+00
  0.64561583E+00  0.48437749E+00  0.58772772E+00
  0.51882009E+00  0.32114503E+00  0.43538278E+00
  0.13645431E-01  0.56797858E+00  0.76749756E-01
  0.14109872E+00  0.56947419E+00  0.93106896E+00
  0.54028167E+00  0.92625336E+00  0.92741720E+00
  0.53940782E+00  0.80880708E+00  0.83557393E-01
  0.63459120E-01  0.13621591E+00  0.43163320E+00
  0.89506339E+00  0.19750489E+00  0.59829462E+00
  0.48871311E+00  0.58787607E+00  0.57941373E+00
  0.39126289E+00  0.44593510E+00  0.45488378E+00
  0.87535526E+00  0.43621456E+00  0.90308980E-01
  0.11945261E-01  0.68365679E+00  0.91030364E+00
  0.38949439E+00  0.36351701E-01  0.91928098E+00
  0.55727745E+00  0.95150504E+00  0.45497263E-01
  0.13191378E+00  0.96462542E+00  0.41776870E+00
  0.65263482E-01  0.15024279E+00  0.58255029E+00
  0.60655347E+00  0.46937921E+00  0.72742109E+00
  0.36230602E+00  0.60867831E+00  0.31407980E+00
  0.89362442E+00  0.47098917E+00  0.23681804E+00
  0.16780629E+00  0.42495654E+00  0.80847519E+00
  0.42076392E+00  0.97115519E+00  0.76144075E+00
  0.65714768E+00  0.13602410E+00  0.18923232E+00
  0.13179455E+00  0.98480921E+00  0.27667208E+00
  0.87636595E+00  0.89760187E+00  0.71745722E+00
  0.52412243E+00  0.62029941E+00  0.79212526E+00
  0.41269129E+00  0.55774586E+00  0.23273090E+00
  0.12459271E-01  0.37204211E+00  0.30048183E+00
  0.10015242E+00  0.50573188E+00  0.72817621E+00
  0.52622445E+00  0.13075606E+00  0.70344184E+00
  0.64887431E+00  0.56510413E-01  0.27005157E+00
  0.29803917E-01  0.83222394E+00  0.21827463E+00
  0.93639549E+00  0.97237791E+00  0.79405301E+00
  0.29683059E+00  0.79697266E+00  0.78302964E+00
  0.62201240E+00  0.38862652E+00  0.21087197E+00
  0.26103549E+00  0.22873513E+00  0.29031422E+00
  0.87871486E+00  0.66422922E+00  0.71437338E+00
  0.73982140E+00  0.31157797E+00  0.72593713E+00
  0.44776754E+00  0.88303178E+00  0.29808033E+00
  0.79029454E+00  0.67648080E+00  0.23481606E+00
  0.13626771E+00  0.17123635E+00  0.80739424E+00
  0.19215119E+00  0.82879629E+00  0.70367011E+00
  0.77008105E+00  0.26035141E+00  0.27439930E+00
  0.35050828E+00  0.18857511E+00  0.20759935E+00
  0.74027445E+00  0.76899824E+00  0.78436343E+00
  0.78757751E+00  0.35507349E+00  0.81275913E+00
  0.28320394E+00  0.75270322E+00  0.23730599E+00
  0.68358854E+00  0.69002711E+00  0.31683880E+00
  0.23279897E+00  0.31545527E+00  0.73638398E+00
  0.27515228E+00  0.66894868E+00  0.63840071E+00
  0.71806124E+00  0.30992551E+00  0.35705477E+00
  0.23943747E+00  0.31891125E+00  0.14288982E+00
  0.79560533E+00  0.66552866E+00  0.86160272E+00
  0.67352948E+00  0.19435239E+00  0.86951431E+00
  0.30717329E+00  0.82110136E+00  0.15476378E+00
  0.77378489E+00  0.87783060E+00  0.37161324E+00
  0.14242011E+00  0.26223814E+00  0.65919868E+00
  0.54669696E+00  0.34252618E+00  0.65184969E+00
  0.42587487E+00  0.61609612E+00  0.39109273E+00
  0.87920326E+00  0.56649182E+00  0.16039922E+00
  0.92775146E-01  0.37714896E+00  0.88879196E+00
  0.36016550E+00  0.93542541E+00  0.84988158E+00
  0.49797997E+00  0.14320947E+00  0.10668073E+00
  0.10862148E+00  0.13054009E+00  0.34988355E+00
  0.87611916E+00  0.92208389E+00  0.63291366E+00
  0.36483974E+00  0.38092568E+00  0.63037828E+00
  0.60676065E+00  0.55324810E+00  0.41064530E+00
  0.58920202E-01  0.64083206E+00  0.14983224E+00
  0.89593438E+00  0.39246852E+00  0.89251579E+00
  0.52473733E+00  0.83287730E+00  0.85639095E+00
  0.36227876E+00  0.99449564E+00  0.10316439E+00
  0.92079728E+00  0.16261754E+00  0.36333747E+00
  0.74085991E-01  0.92260850E+00  0.62518451E+00
  0.44997478E+00  0.55751092E+00  0.67585860E+00
  0.53297387E+00  0.46049529E+00  0.34365527E+00
  0.52813881E-01  0.41358924E+00  0.18212914E+00
  0.98765692E+00  0.54285887E+00  0.84135813E+00
  0.54441636E+00  0.57909105E-01  0.82134421E+00
  0.48410586E+00  0.97990827E+00  0.16450712E+00
  0.96337685E+00  0.94447927E+00  0.33120380E+00
  0.27277233E-02  0.69744050E-01  0.67995470E+00
  0.51644925E+00  0.54951473E+00  0.72123878E+00
  0.45104561E+00  0.52830751E+00  0.30663428E+00
  0.99541557E+00  0.41080230E+00  0.22794382E+00
  0.76216862E-01  0.50256855E+00  0.80288477E+00
  0.50672482E+00  0.48715414E-01  0.77330225E+00
  0.57804988E+00  0.48170076E-01  0.19845057E+00
  0.30478732E-01  0.92462255E+00  0.28671497E+00
  0.94896674E+00  0.99613434E+00  0.72041554E+00
  0.46695319E+00  0.63831464E+00  0.75927349E+00
  0.48064266E+00  0.50405979E+00  0.25939035E+00
  0.66239111E-01  0.35010692E+00  0.26707400E+00
  0.31353451E-01  0.53914573E+00  0.75729737E+00
  0.56898214E+00  0.14275317E+00  0.73879380E+00
  0.56793633E+00  0.91226389E-02  0.24561166E+00
  0.97023939E+00  0.83206924E+00  0.25114444E+00
  0.98983269E+00  0.34627214E-01  0.76565945E+00
  0.34481968E+00  0.73377012E+00  0.75387486E+00
  0.59764846E+00  0.41029479E+00  0.24732316E+00
  0.19862266E+00  0.27387287E+00  0.26102533E+00
  0.90691923E+00  0.62723309E+00  0.74928750E+00
  0.68152857E+00  0.24359320E+00  0.75178237E+00
  0.45758698E+00  0.90951479E+00  0.26110952E+00
  0.84264896E+00  0.74969107E+00  0.26076754E+00
  0.96388043E-01  0.14619454E+00  0.77255019E+00
  0.28488463E+00  0.75166831E+00  0.70903847E+00
  0.68035925E+00  0.33873416E+00  0.28309016E+00
  0.25025696E+00  0.25241617E+00  0.21413074E+00
  0.82783075E+00  0.68341778E+00  0.78784752E+00
  0.71160564E+00  0.26669235E+00  0.80064450E+00
  0.36607345E+00  0.83771409E+00  0.22769503E+00
  0.78024053E+00  0.75601135E+00  0.30705485E+00
  0.15012880E+00  0.22559049E+00  0.73267694E+00
  0.33392258E+00  0.65883031E+00  0.67183128E+00
  0.64797431E+00  0.36365146E+00  0.33037410E+00
  0.18259212E+00  0.32949011E+00  0.17651407E+00
  0.86648402E+00  0.63508631E+00  0.83248464E+00
  0.64462009E+00  0.17001657E+00  0.83347813E+00
  0.38130454E+00  0.87506046E+00  0.18043402E+00
  0.83543347E+00  0.86209077E+00  0.33926215E+00
  0.98732806E-01  0.19095241E+00  0.68786116E+00
  0.47360674E+00  0.43365635E+00  0.63867684E+00
  0.50344003E+00  0.51888211E+00  0.39276701E+00
  0.99008277E+00  0.53354926E+00  0.14906993E+00
  0.99989015E+00  0.45755596E+00  0.88748616E+00
  0.47782739E+00  0.95256512E+00  0.85709471E+00
  0.47715322E+00  0.18873213E-01  0.11287807E+00
  0.97152910E-02  0.74529676E-01  0.36313759E+00
  0.97501359E+00  0.99653735E+00  0.63208553E+00
 -0.14574220E-03  0.27070505E-03 -0.45999886E-04
  0.63697300E-04 -0.11344468E-03 -0.50030981E-04
 -0.18059969E-04  0.99079495E-04  0.63830339E-04
  0.46792806E-04 -0.25613677E-03  0.13955600E-05
  0.40896685E-04 -0.27931918E-03 -0.89877496E-04
 -0.16224961E-03  0.84093355E-04  0.11535163E-03
  0.91303867E-06  0.41189259E-03 -0.15611461E-03
  0.62107704E-04 -0.12320372E-03  0.11575778E-03
 -0.21567299E-04 -0.40923586E-03  0.13000490E-03
  0.47290213E-04  0.10650385E-03 -0.86829750E-04
  0.89654732E-04  0.25446359E-03  0.11125019E-03
 -0.14331259E-03 -0.12269611E-03 -0.10970552E-03
 -0.19640700E-03 -0.40376135E-04 -0.95743961E-04
  0.58111360E-03 -0.81424296E-04  0.28159093E-04
  0.69787087E-04  0.61622239E-04 -0.15640121E-03
 -0.35634446E-03  0.16153322E-03  0.48221297E-05
  0.14271231E-03 -0.15424684E-03  0.60069678E-04
 -0.16745687E-03 -0.19265794E-04 -0.20503018E-04
 -0.10737797E-03 -0.54731336E-04  0.60021617E-04
  0.46630168E-03  0.37187091E-04 -0.39018586E-04
  0.10624596E-02  0.60817349E-03  0.70244919E-04
 -0.64356080E-03  0.83136986E-04 -0.25679214E-03
 -0.52011144E-03 -0.72721574E-03 -0.52803092E-04
  0.62047941E-04  0.10349268E-02  0.12204317E-03
 -0.10918384E-03  0.99318012E-03  0.60973180E-04
 -0.46496633E-03 -0.93537159E-03 -0.34795181E-04
  0.34873994E-03 -0.94258507E-03  0.11433508E-03
 -0.30219256E-03  0.41327175E-03  0.15783392E-03
 -0.12484144E-02 -0.66894517E-03  0.43956421E-03
  0.30552253E-04  0.62260328E-03 -0.31035926E-03
 -0.31280452E-02 -0.39098302E-02 -0.23718124E-03
 -0.15915631E-02  0.16384773E-02  0.16773587E-05
 -0.43074275E-02  0.34934179E-02 -0.38342499E-04
 -0.74123757E-03 -0.71871814E-03 -0.60808727E-03
  0.27139421E-02 -0.42015924E-02 -0.13972981E-03
  0.10569948E-02  0.37273761E-04 -0.17308901E-04
  0.97705356E-03 -0.21536902E-02 -0.58249194E-03
  0.19267551E-03  0.17126949E-02  0.19408315E-04
  0.35306599E-02 -0.86772937E-03  0.21156190E-03
  0.68210934E-03 -0.24383888E-02  0.49483722E-03
  0.21383222E-02  0.27812182E-02 -0.10921307E-03
 -0.13031464E-02 -0.22477319E-03  0.97005831E-03
 -0.42032294E-02 -0.64374215E-04  0.31736481E-03
  0.30207599E-03  0.91439841E-03  0.10087111E-03
  0.31200269E-02  0.11060777E-02 -0.57806924E-03
 -0.64614495E-03  0.10897311E-02 -0.31085245E-03
 -0.20849936E-02  0.22563029E-02 -0.78473132E-03
  0.36675972E-02  0.19555111E-02 -0.39377930E-04
 -0.51016168E-03 -0.20336473E-02  0.29714430E-03
 -0.28271771E-02 -0.39280987E-02 -0.13411444E-03
  0.31221107E-02  0.20238775E-02  0.24322009E-03
  0.86759074E-03 -0.56034305E-03  0.51423392E-03
  0.50941643E-03  0.10352573E-02  0.25169396E-03
 -0.15856501E-02  0.29925453E-03  0.33922787E-04
 -0.72283213E-03 -0.82757059E-04  0.79733400E-04
  0.10588444E-02 -0.66084048E-03  0.46759377E-03
 -0.73656087E-03 -0.15736009E-02  0.88017432E-03
 -0.23713286E-03  0.97843287E-03 -0.17070461E-03
  0.16559609E-02 -0.11628450E-02  0.29885100E-03
 -0.98376449E-03 -0.53567977E-03 -0.68733492E-04
 -0.33923334E-03  0.55937084E-03  0.23072556E-03
 -0.58203243E-03  0.35428401E-03  0.32217084E-04
  0.72183961E-03  0.66789666E-03  0.56149390E-03
  0.63154877E-03  0.16842383E-02 -0.13643591E-03
  0.96155576E-03 -0.91579017E-04 -0.22296855E-03
  0.12947944E-02  0.12237820E-03  0.37010905E-04
  0.11437018E-02 -0.18529930E-02 -0.57335347E-04
 -0.75116413E-04 -0.18417819E-02 -0.88935873E-04
  0.20036864E-03  0.93556747E-03 -0.57330547E-04
  0.18693780E-03  0.11543984E-02  0.33350050E-03
  0.50200095E-03 -0.87799745E-03 -0.19211388E-03
  0.14154065E-02  0.90315603E-03  0.27887861E-03
  0.78676247E-03 -0.84408608E-03  0.87755298E-04
  0.14532907E-02 -0.78194364E-03 -0.13370258E-03
 -0.27562334E-03 -0.15545964E-04 -0.29165462E-04
  0.71197627E-03 -0.68577421E-03 -0.19189073E-03
 -0.26971749E-03  0.56153685E-03  0.15655557E-03
  0.72252759E-03  0.62563343E-03  0.41772426E-03
 -0.18577976E-03 -0.20227438E-02 -0.34931895E-03
  0.12225910E-02  0.13390510E-02 -0.30413958E-04
 -0.78658270E-03  0.23365273E-02 -0.50615198E-03
 -0.22765011E-04  0.23304940E-03 -0.19511522E-03
 -0.22648976E-03 -0.16044797E-02  0.31197416E-03
 -0.65384861E-03  0.35379410E-03 -0.16388771E-03
  0.85095352E-03 -0.55966855E-03 -0.62068933E-03
  0.84232977E-03  0.14784843E-02  0.81856666E-03
  0.10266430E-03 -0.96688346E-03 -0.15859868E-03
 -0.15448025E-02 -0.14002487E-02  0.20704922E-04
  0.76663712E-03  0.37712195E-03  0.10420355E-03
 -0.11677339E-02  0.95569736E-03 -0.30422750E-03
 -0.10303283E-02  0.94149827E-03  0.13573579E-03
 -0.14904918E-02  0.51580175E-03 -0.54373731E-03
 -0.21357975E-02  0.66797536E-04  0.80316998E-04
  0.66476410E-03  0.86513527E-03 -0.30016232E-03
  0.88992745E-03  0.46198255E-03 -0.24826985E-03
 -0.26649969E-02 -0.46880363E-03  0.13205888E-02
 -0.10283069E-03  0.19075296E-02 -0.40411405E-03
  0.21611522E-03  0.25965413E-04 -0.19718685E-03
 -0.44510990E-05  0.24499737E-03  0.43392739E-03
  0.40405697E-03 -0.34683024E-03  0.71004666E-06
 -0.21433007E-02  0.49570055E-02 -0.33534522E-03
  0.80310377E-04  0.56350374E-03  0.43323904E-03
  0.15753313E-02 -0.12817994E-02 -0.43215751E-03
 -0.21599959E-02  0.11292830E-02  0.51146275E-04
 -0.86172966E-03 -0.75914694E-03  0.60354164E-04
 -0.95739247E-03  0.15063890E-03 -0.42594646E-04
 -0.41379087E-03 -0.82393514E-03  0.22636785E-03
  0.58177561E-03  0.45241656E-04  0.43865609E-03
  0.29411146E-04  0.96344533E-03  0.23575965E-04
  0.29023325E-03  0.37151216E-03  0.22597627E-03
 -0.41201497E-05 -0.50847149E-03  0.93089342E-04
 -0.13856007E-03 -0.28544404E-03  0.22302034E-03
  0.81484241E-03 -0.12838943E-03  0.13328625E-03
 -0.39399040E-03  0.52014600E-03 -0.16800355E-03
 -0.47771522E-03  0.31968466E-04 -0.56889873E-04
  0.23356023E-03 -0.39424619E-03 -0.41488859E-04
 -0.12651060E-03  0.49335568E-03  0.89114706E-04
 -0.86930119E-03  0.31743178E-04  0.27035686E-03
 -0.38021448E-03 -0.70919437E-03  0.12503342E-03
  0.29065918E-03 -0.76183543E-03  0.29110959E-03
  0.10789535E-03 -0.22882688E-03  0.92002215E-04
  0.33890999E-03  0.33525157E-03 -0.33090134E-03
  0.16105415E-03 -0.55679027E-03 -0.49845474E-04
 -0.33758035E-03 -0.39268224E-03 -0.17211187E-03
 -0.41038329E-03  0.70293230E-03  0.11226884E-03
 -0.66859911E-04  0.52933998E-03  0.21982303E-03
  0.26058274E-03 -0.49361257E-04  0.25252526E-03
  0.26817749E-03 -0.42248444E-03  0.13891525E-03
 -0.21099760E-03 -0.29858716E-03 -0.10245222E-03
  0.58480320E-04  0.51824976E-03 -0.13995973E-03
  0.24245601E-03 -0.55475003E-03 -0.16022256E-03
  0.46082070E-03 -0.12454975E-02 -0.13981050E-03
 -0.21606301E-03  0.19095009E-03 -0.11036746E-03
  0.19652314E-03  0.14186994E-02  0.27217536E-03
  0.25648750E-03 -0.64089692E-03 -0.51772324E-04
  0.37824439E-03 -0.10241100E-03  0.13868196E-03
  0.17194185E-03 -0.61207893E-03  0.45536462E-04
  0.45719285E-03  0.46615894E-03 -0.77504955E-04
 -0.34995832E-03 -0.61300902E-04  0.51206899E-04
  0.60100875E-04 -0.10606051E-02 -0.11272704E-03
 -0.40902018E-03  0.26423154E-03  0.55544361E-04
  0.45714480E-03  0.98101257E-03  0.13875157E-03
  0.42599425E-03 -0.12540146E-02 -0.67900573E-04
  0.44980627E-03 -0.16115695E-04 -0.97374669E-04
 -0.72173906E-04  0.65434675E-03 -0.45968498E-04
  0.49285572E-04  0.61968792E-03  0.26427789E-05
 -0.54525249E-03 -0.12105785E-02  0.14438626E-03
 -0.29309063E-03 -0.19378931E-03 -0.12416063E-04
  0.17204661E-03  0.67926813E-03 -0.12019923E-03
  0.54026951E-04 -0.25488765E-03  0.31501066E-03
 -0.51359613E-03 -0.86666311E-03 -0.14944898E-04
  0.18113863E-03  0.18483104E-03  0.14165743E-03
 -0.37790889E-04  0.45545480E-03  0.86251136E-04
 -0.11408710E-03  0.15165204E-03 -0.58675161E-04
 -0.11901207E-03 -0.33430455E-03  0.10180053E-03
 -0.75362400E-03  0.61753828E-03 -0.85325871E-04
 -0.23072581E-03  0.12567175E-02 -0.24675489E-04
 -0.13679853E-03  0.90956648E-03 -0.36383494E-04
  0.33875490E-03 -0.65871475E-03 -0.14183811E-03
 -0.90299742E-03  0.29454579E-03  0.17604880E-03
 -0.28716367E-03  0.64150196E-03 -0.10897920E-04
 -0.32413613E-03  0.12577561E-03 -0.18093944E-03
 -0.33620189E-04 -0.11765518E-03  0.10386002E-03
 -0.32693890E-03  0.20513452E-03  0.51960860E-04
  0.00000000E+00  0.00000000E+00  0.00000000E+00
  0.00000000E+00  0.00000000E+00  0.00000000E+00
  0.00000000E+00  0.00000000E+00  0.00000000E+00
  0.00000000E+00  0.00000000E+00  0.00000000E+00
  0.00000000E+00  0.00000000E+00  0.00000000E+00
  0.00000000E+00  0.00000000E+00  0.00000000E+00
  0.00000000E+00  0.00000000E+00  0.00000000E+00
  0.00000000E+00  0.00000000E+00  0.00000000E+00
  0.00000000E+00  0.00000000E+00  0.00000000E+00
  0.00000000E+00  0.00000000E+00  0.00000000E+00
  0.00000000E+00  0.00000000E+00  0.00000000E+00
  0.00000000E+00  0.00000000E+00  0.00000000E+00
  0.00000000E+00  0.00000000E+00  0.00000000E+00
  0.00000000E+00  0.00000000E+00  0.00000000E+00
  0.00000000E+00  0.00000000E+00  0.00000000E+00
  0.00000000E+00  0.00000000E+00  0.00000000E+00
  0.00000000E+00  0.00000000E+00  0.00000000E+00
  0.00000000E+00  0.00000000E+00  0.00000000E+00
  0.00000000E+00  0.00000000E+00  0.00000000E+00
  0.00000000E+00  0.00000000E+00  0.00000000E+00
  0.00000000E+00  0.00000000E+00  0.00000000E+00
  0.00000000E+00  0.00000000E+00  0.00000000E+00
  0.00000000E+00  0.00000000E+00  0.00000000E+00
  0.00000000E+00  0.00000000E+00  0.00000000E+00
  0.00000000E+00  0.00000000E+00  0.00000000E+00
  0.00000000E+00  0.00000000E+00  0.00000000E+00
  0.00000000E+00  0.00000000E+00  0.00000000E+00
  0.00000000E+00  0.00000000E+00  0.00000000E+00
  0.00000000E+00  0.00000000E+00  0.00000000E+00
  0.00000000E+00  0.00000000E+00  0.00000000E+00
  0.00000000E+00  0.00000000E+00  0.00000000E+00
  0.00000000E+00  0.00000000E+00  0.00000000E+00
  0.00000000E+00  0.00000000E+00  0.00000000E+00
  0.00000000E+00  0.00000000E+00  0.00000000E+00
  0.00000000E+00  0.00000000E+00  0.00000000E+00
  0.00000000E+00  0.00000000E+00  0.00000000E+00
  0.00000000E+00  0.00000000E+00  0.00000000E+00
  0.00000000E+00  0.00000000E+00  0.00000000E+00
  0.00000000E+00  0.00000000E+00  0.00000000E+00
  0.00000000E+00  0.00000000E+00  0.00000000E+00
  0.00000000E+00  0.00000000E+00  0.00000000E+00
  0.00000000E+00  0.00000000E+00  0.00000000E+00
  0.00000000E+00  0.00000000E+00  0.00000000E+00
  0.00000000E+00  0.00000000E+00  0.00000000E+00
  0.00000000E+00  0.00000000E+00  0.00000000E+00
  0.00000000E+00  0.00000000E+00  0.00000000E+00
  0.00000000E+00  0.00000000E+00  0.00000000E+00
  0.00000000E+00  0.00000000E+00  0.00000000E+00
  0.00000000E+00  0.00000000E+00  0.00000000E+00
  0.00000000E+00  0.00000000E+00  0.00000000E+00
  0.00000000E+00  0.00000000E+00  0.00000000E+00
  0.00000000E+00  0.00000000E+00  0.00000000E+00
  0.00000000E+00  0.00000000E+00  0.00000000E+00
  0.00000000E+00  0.00000000E+00  0.00000000E+00
  0.00000000E+00  0.00000000E+00  0.00000000E+00
  0.00000000E+00  0.00000000E+00  0.00000000E+00
  0.00000000E+00  0.00000000E+00  0.00000000E+00
  0.00000000E+00  0.00000000E+00  0.00000000E+00
  0.00000000E+00  0.00000000E+00  0.00000000E+00
  0.00000000E+00  0.00000000E+00  0.00000000E+00
  0.00000000E+00  0.00000000E+00  0.00000000E+00
  0.00000000E+00  0.00000000E+00  0.00000000E+00
  0.00000000E+00  0.00000000E+00  0.00000000E+00
  0.00000000E+00  0.00000000E+00  0.00000000E+00
  0.00000000E+00  0.00000000E+00  0.00000000E+00
  0.00000000E+00  0.00000000E+00  0.00000000E+00
  0.00000000E+00  0.00000000E+00  0.00000000E+00
  0.00000000E+00  0.00000000E+00  0.00000000E+00
  0.00000000E+00  0.00000000E+00  0.00000000E+00
  0.00000000E+00  0.00000000E+00  0.00000000E+00
  0.00000000E+00  0.00000000E+00  0.00000000E+00
  0.00000000E+00  0.00000000E+00  0.00000000E+00
  0.00000000E+00  0.00000000E+00  0.00000000E+00
  0.00000000E+00  0.00000000E+00  0.00000000E+00
  0.00000000E+00  0.00000000E+00  0.00000000E+00
  0.00000000E+00  0.00000000E+00  0.00000000E+00
  0.00000000E+00  0.00000000E+00  0.00000000E+00
  0.00000000E+00  0.00000000E+00  0.00000000E+00
  0.00000000E+00  0.00000000E+00  0.00000000E+00
  0.00000000E+00  0.00000000E+00  0.00000000E+00
  0.00000000E+00  0.00000000E+00  0.00000000E+00
  0.00000000E+00  0.00000000E+00  0.00000000E+00
  0.00000000E+00  0.00000000E+00  0.00000000E+00
  0.00000000E+00  0.00000000E+00  0.00000000E+00
  0.00000000E+00  0.00000000E+00  0.00000000E+00
  0.00000000E+00  0.00000000E+00  0.00000000E+00
  0.00000000E+00  0.00000000E+00  0.00000000E+00
  0.00000000E+00  0.00000000E+00  0.00000000E+00
  0.00000000E+00  0.00000000E+00  0.00000000E+00
  0.00000000E+00  0.00000000E+00  0.00000000E+00
  0.00000000E+00  0.00000000E+00  0.00000000E+00
  0.00000000E+00  0.00000000E+00  0.00000000E+00
  0.00000000E+00  0.00000000E+00  0.00000000E+00
  0.00000000E+00  0.00000000E+00  0.00000000E+00
  0.00000000E+00  0.00000000E+00  0.00000000E+00
  0.00000000E+00  0.00000000E+00  0.00000000E+00
  0.00000000E+00  0.00000000E+00  0.00000000E+00
  0.00000000E+00  0.00000000E+00  0.00000000E+00
  0.00000000E+00  0.00000000E+00  0.00000000E+00
  0.00000000E+00  0.00000000E+00  0.00000000E+00
  0.00000000E+00  0.00000000E+00  0.00000000E+00
  0.00000000E+00  0.00000000E+00  0.00000000E+00
  0.00000000E+00  0.00000000E+00  0.00000000E+00
  0.00000000E+00  0.00000000E+00  0.00000000E+00
  0.00000000E+00  0.00000000E+00  0.00000000E+00
  0.00000000E+00  0.00000000E+00  0.00000000E+00
  0.00000000E+00  0.00000000E+00  0.00000000E+00
  0.00000000E+00  0.00000000E+00  0.00000000E+00
  0.00000000E+00  0.00000000E+00  0.00000000E+00
  0.00000000E+00  0.00000000E+00  0.00000000E+00
  0.00000000E+00  0.00000000E+00  0.00000000E+00
  0.00000000E+00  0.00000000E+00  0.00000000E+00
  0.00000000E+00  0.00000000E+00  0.00000000E+00
  0.00000000E+00  0.00000000E+00  0.00000000E+00
  0.00000000E+00  0.00000000E+00  0.00000000E+00
  0.00000000E+00  0.00000000E+00  0.00000000E+00
  0.00000000E+00  0.00000000E+00  0.00000000E+00
  0.00000000E+00  0.00000000E+00  0.00000000E+00
  0.00000000E+00  0.00000000E+00  0.00000000E+00
  0.00000000E+00  0.00000000E+00  0.00000000E+00
  0.00000000E+00  0.00000000E+00  0.00000000E+00
  0.00000000E+00  0.00000000E+00  0.00000000E+00
  0.00000000E+00  0.00000000E+00  0.00000000E+00
  0.00000000E+00  0.00000000E+00  0.00000000E+00
  0.00000000E+00  0.00000000E+00  0.00000000E+00
  0.00000000E+00  0.00000000E+00  0.00000000E+00
  0.00000000E+00  0.00000000E+00  0.00000000E+00
  0.00000000E+00  0.00000000E+00  0.00000000E+00
  0.00000000E+00  0.00000000E+00  0.00000000E+00
  0.00000000E+00  0.00000000E+00  0.00000000E+00
  0.00000000E+00  0.00000000E+00  0.00000000E+00
  0.00000000E+00  0.00000000E+00  0.00000000E+00
  0.00000000E+00  0.00000000E+00  0.00000000E+00
  0.00000000E+00  0.00000000E+00  0.00000000E+00
  0.00000000E+00  0.00000000E+00  0.00000000E+00
  0.00000000E+00  0.00000000E+00  0.00000000E+00
  0.00000000E+00  0.00000000E+00  0.00000000E+00
  0.00000000E+00  0.00000000E+00  0.00000000E+00
  0.00000000E+00  0.00000000E+00  0.00000000E+00
  0.00000000E+00  0.00000000E+00  0.00000000E+00
  0.00000000E+00  0.00000000E+00  0.00000000E+00
  0.00000000E+00  0.00000000E+00  0.00000000E+00
  0.00000000E+00  0.00000000E+00  0.00000000E+00
  0.00000000E+00  0.00000000E+00  0.00000000E+00
  0.00000000E+00  0.00000000E+00  0.00000000E+00
  0.00000000E+00  0.00000000E+00  0.00000000E+00
  0.00000000E+00  0.00000000E+00  0.00000000E+00
  0.00000000E+00  0.00000000E+00  0.00000000E+00
  0.00000000E+00  0.00000000E+00  0.00000000E+00
  0.00000000E+00  0.00000000E+00  0.00000000E+00
  0.00000000E+00  0.00000000E+00  0.00000000E+00
  0.00000000E+00  0.00000000E+00  0.00000000E+00
  0.00000000E+00  0.00000000E+00  0.00000000E+00
  0.00000000E+00  0.00000000E+00  0.00000000E+00
  0.00000000E+00  0.00000000E+00  0.00000000E+00
  0.00000000E+00  0.00000000E+00  0.00000000E+00
  0.00000000E+00  0.00000000E+00  0.00000000E+00
  0.00000000E+00  0.00000000E+00  0.00000000E+00
  0.00000000E+00  0.00000000E+00  0.00000000E+00
  0.00000000E+00  0.00000000E+00  0.00000000E+00
  0.00000000E+00  0.00000000E+00  0.00000000E+00
  0.00000000E+00  0.00000000E+00  0.00000000E+00
  0.00000000E+00  0.00000000E+00  0.00000000E+00
  0.00000000E+00  0.00000000E+00  0.00000000E+00
