2(C7 H9 F N +), I4 Pb 2-                
   1.00000000000000     
     8.7325000762999991    0.0000000000000000    0.0000000000000000
     0.0000000000000000    9.2819004059000001    0.0000000000000000
    -3.7349164072000001    0.0000000000000000   27.4712691195999987
   Pb   I    F    N    H    C 
     4    16     8     8    72    56
Direct
  0.4969455060750222  0.5386412964931716  0.2498144533881595
  0.5030545237230800  0.4613587034098681  0.7501855317017196
  0.0030544940246812  0.0386412964877853  0.2501855317308446
  0.9969454761962592  0.9613587034152536  0.7498144682837213
  0.4197149327826678  0.5782765911420283  0.1306665173494125
  0.5802850374227124  0.4217234088687434  0.8693334826287528
  0.0802850671418939  0.0782765911366424  0.3693334826214695
  0.9197149626111449  0.9217234088741294  0.6306665173566882
  0.5595736496340200  0.5030072200529737  0.3659448580990001
  0.4404263503207964  0.4969927799577984  0.6340551121025926
  0.9404263503862660  0.0030072200583596  0.1340551419082828
  0.0595736496484657 -0.0030072200475877  0.8659448879192424
  0.1896876613097447  0.3404558079910971  0.2419396591028079
  0.8103123089111961  0.6595441920196742  0.7580603409117518
  0.3103123387449032  0.8404558079964836  0.2580603409044753
  0.6896876911226542  0.1595441920142885  0.7419396590736892
  0.8088532363010578  0.7387881462828396  0.2584344083493176
  0.1911467637181060  0.2612118537279386  0.7415656214418068
  0.6911467637192353  0.2387881462774539  0.2415655916579652
  0.3088532362355809  0.7612118537333252  0.7584343785436342
  0.8546761182058907  0.3250786127950286  0.4384243965480664
  0.1453238817733184  0.6749213872157432  0.5615756034300919
  0.6453238818144024  0.8250786128004145  0.0615756034592167
  0.3546761181803756  0.1749213872103574  0.9384243965553490
  0.5660029129397811  0.7812110604647159  0.5440658895902275
  0.4339970870549893  0.2187889395460561  0.4559341104243306
  0.9339970871096371  0.2812110604593303  0.9559341104316146
  0.0660029128851402  0.7187889395514419  0.0440658895829450
  0.0386079144262254  0.5544013091571309  0.6555454405756620
  0.9613920855529843  0.4455986908536477  0.3444545594025036
  0.4613920855274684  0.0544013091517379  0.8444545594097790
  0.5386079144517337  0.9455986908590339  0.1555454405683784
  0.4824122306890368  0.1273706870841051  0.3450617395797782
  0.5175877693802976  0.8726293129266738  0.6549382306218146
  0.0175877693656105  0.6273706870894911  0.1549382604275048
 -0.0175877693464472  0.3726293129212876  0.8450617693636264
  0.1429392307146668  0.5196845211089572  0.6450741762779938
  0.8570607692645354  0.4803154789018222  0.3549258237001646
  0.3570607692390201  0.0196845211035638  0.8549258237074472
  0.6429392307557505  0.9803154789072076  0.1450741763071118
  0.0543846724248059  0.5647144399771100  0.6930628757006513
  0.9456153275699717  0.4352855600336610  0.3069371243139082
  0.4456153275444556  0.0647144399717245  0.8069371243211908
  0.5543846724503214  0.9352855600390548  0.1930628756933754
  0.0151656312250644  0.6576199312590001  0.6412703501283384
  0.9848343687541451  0.3423800686440321  0.3587296498498195
  0.4848343687286295  0.1576199312536140  0.8587296498571025
  0.5151656312505729  0.8423800686494252  0.1412703501210624
  0.7213817498769393  0.5456687444978930  0.4749544305483316
  0.2786182501422316  0.4543312555128791  0.5250455992427926
  0.7786182501433538  0.0456687444925069  0.0250455694589442
  0.2213817499259805  0.9543312555182647  0.9749544007426484
  0.7444951462405652  0.6016328559466538  0.5641857900973748
  0.2555048537386373  0.3983671440641186  0.4358142098807835
  0.7555048537932850  0.1016328559412674  0.9358142098880662
  0.2444951461859245  0.8983671440695039  0.0641857900900914
  0.0369366320761193  0.2288390225232474  0.5955919357313469
  0.9630633679030899  0.7711609923551696  0.4044080642468110
  0.4630633679920930  0.7288390076609882  0.9044080642540940
  0.5369366320026850  0.2711609923497834  0.0955919357604722
  0.0122570800231957  0.1740792165623100  0.5065774018568761
  0.9877429199560144  0.8259208131837587  0.4934225981212818
  0.4877429199304982  0.6740791868324062  0.9934225981285649
  0.5122570800642787  0.3259207834430832  0.0065774018859942
  0.9265214333511262  0.3549256740822612  0.6615703797205571
  0.0734785666436513  0.6450743258207784  0.3384296202940014
  0.5734785666827311  0.8549256740876469  0.8384296202648768
  0.4265214332964784  0.1450743258153926  0.1615703797132814
  0.8009473840860093  0.5055772599042346  0.6487536679142595
  0.1990526158931937  0.4944227699495662  0.3512463320638990
  0.6990526158333228  0.0055772300665987  0.8512463320711815
  0.3009473841614472 -0.0055772598988490  0.1487536679433772
  0.3750513687714371  0.0904065794205461  0.3523169540142090
  0.6249486610961200  0.9095934205902251  0.6476830459639493
  0.1249486312676355  0.5904065794259327  0.1476830459566733
  0.8750513389377373  0.4095934205848398  0.8523169540214846
  0.4734006121580776  0.1516844384250038  0.3083118538218576
  0.5265994175705755  0.8483155615857676  0.6916881163797355
  0.0265993877820595  0.6516844384303973  0.1916881461854255
  0.9734005823487637  0.3483155615803820  0.8083118836056984
  0.5047344694361590  0.2247336077637979  0.3635581120828927
  0.4952655306176005  0.7752663922469741  0.6364418580822984
  0.9952655305685590  0.7247336077691907  0.1364418878879892
  0.0047344694506044  0.2752663922415874  0.8635581419031355
  0.3796257694633493  0.7232512657550683  0.4652534148183080
  0.6203742305158602  0.2767487342557107  0.5347465851598496
  0.1203742305912986  0.2232512657496827  0.0347465851889751
  0.8796257694034790  0.7767487342610966  0.9652534148255913
  0.3975612119831318  0.8280606296518487  0.3833505938725072
  0.6024388177699069  0.1719393703589229  0.6166494061056503
  0.1024387880559407  0.3280606296464629  0.1166494060983676
  0.8975611821494323  0.6719393703643091  0.8833505938797906
  0.8057987070260542  0.0626879646863710  0.4430551235715455
  0.1942012929687168  0.9373120353244082  0.5569448764430135
  0.6942012929942318  0.5626879646917566  0.0569448764357377
  0.3057987071150562  0.4373120353190145  0.9430551235788286
  0.7838315088720793  0.9585864227837176  0.5258398178005497
  0.2161684911071309  0.0414135772270541  0.4741601821776077
  0.7161684911617781  0.4585864227783315  0.9741601821848913
  0.2838315088329988  0.5414135772324401  0.0258398178296683
  0.7204466122187820  0.0762038385034565  0.3572878383014722
  0.2795533878505524  0.9237961615073158  0.6427121319001271
  0.7795533878015111  0.5762038385088419  0.1427121617058108
  0.2204466122176528  0.4237961615019296  0.8572878680853139
  0.5981340279720913  0.9366196161069923  0.3299058105695681
  0.4018659719827252  0.0633803839037864  0.6700941596320245
  0.9018659719336837  0.4366196161015997  0.1700941894377148
  0.0981340279709687  0.5633803839091726  0.8299058403534094
  0.8654906339737932  0.3570859551001145  0.4874825235247762
  0.1345093660054160  0.6429140150676280  0.5125174764533890
  0.6345093660464999  0.8570859849485297  0.0125174764825070
  0.3654906339482775  0.1429140449052712  0.9874825235320520
  0.7895113690924507  0.4780966368681701  0.5018893536795673
  0.2104886308867515  0.5219033928778919  0.4981106462985906
  0.7104886309413996  0.9780966071382658  0.9981106463058736
  0.2895113691523211  0.0219033631372158  0.0018893536722844
  0.8037979111388798  0.5083833029697755  0.5517262173296079
  0.1962020888403224  0.4916166970409961  0.4482737826485502
  0.6962020888949705  0.0083833029643897  0.9482737826558260
  0.3037979110998076 -0.0083833029536108  0.0517262173587328
  0.8923437525595073  0.4194681854538537  0.5857554160976547
  0.1076562474352707  0.5805318443999404  0.4142445839169037
  0.6076562473753999  0.9194681556162173  0.9142445839241874
  0.3923437526193773  0.0805318145515323  0.0857554160903719
  0.9679247952589620  0.2988378925125346  0.5695464353532119
  0.0320752047202479  0.7011621373412669  0.4304535646249457
  0.5320752046603772  0.7988378626748909  0.9304535646322291
  0.4679247953343998  0.2011621074928511  0.0695464353823371
  0.9539191773471930  0.2663329591040424  0.5199521356141056
  0.0460808226320162  0.7336670409067291  0.4800478643640519
  0.5460808225721462  0.7663329591094287  0.9800478643713283
  0.4539191774070639  0.2336670409013433  0.0199521356068299
  0.9049986117687815  0.4523599851789282  0.6393497047781030
  0.0950013882259894  0.5476399849888206  0.3606502952364621
  0.5950013882806368  0.9523600150273442  0.8606502952437390
  0.4049986117141404  0.0476400147187249  0.1393497047708206
  0.5814155588126250  0.8362914039700294  0.4984670202931097
  0.4185844412065390  0.1637085960407428  0.5015330094980140
  0.9185844412076681  0.3362914039646431  0.0015329797141734
  0.0814155587471479  0.6637085960461283  0.9984669904874198
  0.4714620522168236  0.7976910427244355  0.4597552755342376
  0.5285379477623784  0.2023089572863366  0.5402447244439202
  0.0285379478222490  0.2976910427190493  0.0402447244366446
  0.9714620521569537  0.7023089572917223  0.9597552755415207
  0.4828238943126339  0.8574273694162849  0.4142081789704643
  0.5171761056266150  0.1425726305944877  0.5857917911947274
  0.0171761057264461  0.3574273694108979  0.0857918210004106
  0.9828238942927242  0.6425726305998799  0.9142082087907136
  0.6027091245057534  0.9535531123258073  0.4079956102760056
  0.3972908754734559  0.0464468876849649  0.5920043897021595
  0.8972908754989717  0.4535531123204210  0.0920043896948764
  0.1027091244802379  0.5464468876903504  0.9079956102832815
  0.7126379759530230  0.9883356017326025  0.4479525448676980
  0.2873620240661405  0.0116643982781698  0.5520474849234256
  0.7873620240672700  0.4883356017272162  0.0520474551395847
  0.2126379760020647  0.5116643982835553  0.9479525150620154
  0.7027626595389393  0.9298306087802640  0.4939517227201593
  0.2972373404402627  0.0701693912305083  0.5060482772579988
  0.7972373404657787  0.4298306087748777  0.0060482772507227
  0.2027626595134313  0.5701693912358937  0.9939517227274350
  0.6116879081748889  0.0185241910042761  0.3586871473994559
  0.3883120917799275  0.9814758090064959  0.6413128228021371
  0.8883120918454042  0.5185241910096619  0.1413128526078205
  0.1116879081893273  0.4814758090011100  0.8586871772197050
 
  0.00000000E+00  0.00000000E+00  0.00000000E+00
  0.00000000E+00  0.00000000E+00  0.00000000E+00
  0.00000000E+00  0.00000000E+00  0.00000000E+00
  0.00000000E+00  0.00000000E+00  0.00000000E+00
  0.00000000E+00  0.00000000E+00  0.00000000E+00
  0.00000000E+00  0.00000000E+00  0.00000000E+00
  0.00000000E+00  0.00000000E+00  0.00000000E+00
  0.00000000E+00  0.00000000E+00  0.00000000E+00
  0.00000000E+00  0.00000000E+00  0.00000000E+00
  0.00000000E+00  0.00000000E+00  0.00000000E+00
  0.00000000E+00  0.00000000E+00  0.00000000E+00
  0.00000000E+00  0.00000000E+00  0.00000000E+00
  0.00000000E+00  0.00000000E+00  0.00000000E+00
  0.00000000E+00  0.00000000E+00  0.00000000E+00
  0.00000000E+00  0.00000000E+00  0.00000000E+00
  0.00000000E+00  0.00000000E+00  0.00000000E+00
  0.00000000E+00  0.00000000E+00  0.00000000E+00
  0.00000000E+00  0.00000000E+00  0.00000000E+00
  0.00000000E+00  0.00000000E+00  0.00000000E+00
  0.00000000E+00  0.00000000E+00  0.00000000E+00
  0.00000000E+00  0.00000000E+00  0.00000000E+00
  0.00000000E+00  0.00000000E+00  0.00000000E+00
  0.00000000E+00  0.00000000E+00  0.00000000E+00
  0.00000000E+00  0.00000000E+00  0.00000000E+00
  0.00000000E+00  0.00000000E+00  0.00000000E+00
  0.00000000E+00  0.00000000E+00  0.00000000E+00
  0.00000000E+00  0.00000000E+00  0.00000000E+00
  0.00000000E+00  0.00000000E+00  0.00000000E+00
  0.00000000E+00  0.00000000E+00  0.00000000E+00
  0.00000000E+00  0.00000000E+00  0.00000000E+00
  0.00000000E+00  0.00000000E+00  0.00000000E+00
  0.00000000E+00  0.00000000E+00  0.00000000E+00
  0.00000000E+00  0.00000000E+00  0.00000000E+00
  0.00000000E+00  0.00000000E+00  0.00000000E+00
  0.00000000E+00  0.00000000E+00  0.00000000E+00
  0.00000000E+00  0.00000000E+00  0.00000000E+00
  0.00000000E+00  0.00000000E+00  0.00000000E+00
  0.00000000E+00  0.00000000E+00  0.00000000E+00
  0.00000000E+00  0.00000000E+00  0.00000000E+00
  0.00000000E+00  0.00000000E+00  0.00000000E+00
  0.00000000E+00  0.00000000E+00  0.00000000E+00
  0.00000000E+00  0.00000000E+00  0.00000000E+00
  0.00000000E+00  0.00000000E+00  0.00000000E+00
  0.00000000E+00  0.00000000E+00  0.00000000E+00
  0.00000000E+00  0.00000000E+00  0.00000000E+00
  0.00000000E+00  0.00000000E+00  0.00000000E+00
  0.00000000E+00  0.00000000E+00  0.00000000E+00
  0.00000000E+00  0.00000000E+00  0.00000000E+00
  0.00000000E+00  0.00000000E+00  0.00000000E+00
  0.00000000E+00  0.00000000E+00  0.00000000E+00
  0.00000000E+00  0.00000000E+00  0.00000000E+00
  0.00000000E+00  0.00000000E+00  0.00000000E+00
  0.00000000E+00  0.00000000E+00  0.00000000E+00
  0.00000000E+00  0.00000000E+00  0.00000000E+00
  0.00000000E+00  0.00000000E+00  0.00000000E+00
  0.00000000E+00  0.00000000E+00  0.00000000E+00
  0.00000000E+00  0.00000000E+00  0.00000000E+00
  0.00000000E+00  0.00000000E+00  0.00000000E+00
  0.00000000E+00  0.00000000E+00  0.00000000E+00
  0.00000000E+00  0.00000000E+00  0.00000000E+00
  0.00000000E+00  0.00000000E+00  0.00000000E+00
  0.00000000E+00  0.00000000E+00  0.00000000E+00
  0.00000000E+00  0.00000000E+00  0.00000000E+00
  0.00000000E+00  0.00000000E+00  0.00000000E+00
  0.00000000E+00  0.00000000E+00  0.00000000E+00
  0.00000000E+00  0.00000000E+00  0.00000000E+00
  0.00000000E+00  0.00000000E+00  0.00000000E+00
  0.00000000E+00  0.00000000E+00  0.00000000E+00
  0.00000000E+00  0.00000000E+00  0.00000000E+00
  0.00000000E+00  0.00000000E+00  0.00000000E+00
  0.00000000E+00  0.00000000E+00  0.00000000E+00
  0.00000000E+00  0.00000000E+00  0.00000000E+00
  0.00000000E+00  0.00000000E+00  0.00000000E+00
  0.00000000E+00  0.00000000E+00  0.00000000E+00
  0.00000000E+00  0.00000000E+00  0.00000000E+00
  0.00000000E+00  0.00000000E+00  0.00000000E+00
  0.00000000E+00  0.00000000E+00  0.00000000E+00
  0.00000000E+00  0.00000000E+00  0.00000000E+00
  0.00000000E+00  0.00000000E+00  0.00000000E+00
  0.00000000E+00  0.00000000E+00  0.00000000E+00
  0.00000000E+00  0.00000000E+00  0.00000000E+00
  0.00000000E+00  0.00000000E+00  0.00000000E+00
  0.00000000E+00  0.00000000E+00  0.00000000E+00
  0.00000000E+00  0.00000000E+00  0.00000000E+00
  0.00000000E+00  0.00000000E+00  0.00000000E+00
  0.00000000E+00  0.00000000E+00  0.00000000E+00
  0.00000000E+00  0.00000000E+00  0.00000000E+00
  0.00000000E+00  0.00000000E+00  0.00000000E+00
  0.00000000E+00  0.00000000E+00  0.00000000E+00
  0.00000000E+00  0.00000000E+00  0.00000000E+00
  0.00000000E+00  0.00000000E+00  0.00000000E+00
  0.00000000E+00  0.00000000E+00  0.00000000E+00
  0.00000000E+00  0.00000000E+00  0.00000000E+00
  0.00000000E+00  0.00000000E+00  0.00000000E+00
  0.00000000E+00  0.00000000E+00  0.00000000E+00
  0.00000000E+00  0.00000000E+00  0.00000000E+00
  0.00000000E+00  0.00000000E+00  0.00000000E+00
  0.00000000E+00  0.00000000E+00  0.00000000E+00
  0.00000000E+00  0.00000000E+00  0.00000000E+00
  0.00000000E+00  0.00000000E+00  0.00000000E+00
  0.00000000E+00  0.00000000E+00  0.00000000E+00
  0.00000000E+00  0.00000000E+00  0.00000000E+00
  0.00000000E+00  0.00000000E+00  0.00000000E+00
  0.00000000E+00  0.00000000E+00  0.00000000E+00
  0.00000000E+00  0.00000000E+00  0.00000000E+00
  0.00000000E+00  0.00000000E+00  0.00000000E+00
  0.00000000E+00  0.00000000E+00  0.00000000E+00
  0.00000000E+00  0.00000000E+00  0.00000000E+00
  0.00000000E+00  0.00000000E+00  0.00000000E+00
  0.00000000E+00  0.00000000E+00  0.00000000E+00
  0.00000000E+00  0.00000000E+00  0.00000000E+00
  0.00000000E+00  0.00000000E+00  0.00000000E+00
  0.00000000E+00  0.00000000E+00  0.00000000E+00
  0.00000000E+00  0.00000000E+00  0.00000000E+00
  0.00000000E+00  0.00000000E+00  0.00000000E+00
  0.00000000E+00  0.00000000E+00  0.00000000E+00
  0.00000000E+00  0.00000000E+00  0.00000000E+00
  0.00000000E+00  0.00000000E+00  0.00000000E+00
  0.00000000E+00  0.00000000E+00  0.00000000E+00
  0.00000000E+00  0.00000000E+00  0.00000000E+00
  0.00000000E+00  0.00000000E+00  0.00000000E+00
  0.00000000E+00  0.00000000E+00  0.00000000E+00
  0.00000000E+00  0.00000000E+00  0.00000000E+00
  0.00000000E+00  0.00000000E+00  0.00000000E+00
  0.00000000E+00  0.00000000E+00  0.00000000E+00
  0.00000000E+00  0.00000000E+00  0.00000000E+00
  0.00000000E+00  0.00000000E+00  0.00000000E+00
  0.00000000E+00  0.00000000E+00  0.00000000E+00
  0.00000000E+00  0.00000000E+00  0.00000000E+00
  0.00000000E+00  0.00000000E+00  0.00000000E+00
  0.00000000E+00  0.00000000E+00  0.00000000E+00
  0.00000000E+00  0.00000000E+00  0.00000000E+00
  0.00000000E+00  0.00000000E+00  0.00000000E+00
  0.00000000E+00  0.00000000E+00  0.00000000E+00
  0.00000000E+00  0.00000000E+00  0.00000000E+00
  0.00000000E+00  0.00000000E+00  0.00000000E+00
  0.00000000E+00  0.00000000E+00  0.00000000E+00
  0.00000000E+00  0.00000000E+00  0.00000000E+00
  0.00000000E+00  0.00000000E+00  0.00000000E+00
  0.00000000E+00  0.00000000E+00  0.00000000E+00
  0.00000000E+00  0.00000000E+00  0.00000000E+00
  0.00000000E+00  0.00000000E+00  0.00000000E+00
  0.00000000E+00  0.00000000E+00  0.00000000E+00
  0.00000000E+00  0.00000000E+00  0.00000000E+00
  0.00000000E+00  0.00000000E+00  0.00000000E+00
  0.00000000E+00  0.00000000E+00  0.00000000E+00
  0.00000000E+00  0.00000000E+00  0.00000000E+00
  0.00000000E+00  0.00000000E+00  0.00000000E+00
  0.00000000E+00  0.00000000E+00  0.00000000E+00
  0.00000000E+00  0.00000000E+00  0.00000000E+00
  0.00000000E+00  0.00000000E+00  0.00000000E+00
  0.00000000E+00  0.00000000E+00  0.00000000E+00
  0.00000000E+00  0.00000000E+00  0.00000000E+00
  0.00000000E+00  0.00000000E+00  0.00000000E+00
  0.00000000E+00  0.00000000E+00  0.00000000E+00
  0.00000000E+00  0.00000000E+00  0.00000000E+00
  0.00000000E+00  0.00000000E+00  0.00000000E+00
  0.00000000E+00  0.00000000E+00  0.00000000E+00
  0.00000000E+00  0.00000000E+00  0.00000000E+00
  0.00000000E+00  0.00000000E+00  0.00000000E+00
  0.00000000E+00  0.00000000E+00  0.00000000E+00
  0.00000000E+00  0.00000000E+00  0.00000000E+00
  0.00000000E+00  0.00000000E+00  0.00000000E+00
  0.00000000E+00  0.00000000E+00  0.00000000E+00
