2(C7 H10 N +), I4 Pb 2-                 
   1.00000000000000     
     9.1436996460000000    0.0000000000000000    0.0000000000000000
     0.0000000000000000    8.6683998108000004    0.0000000000000000
     0.0000000000000000    0.0000000000000000   28.5984001160000005
   Pb   I    N    H    C 
     4    16     8    80    56
Direct
  0.0000000000000000  0.4999999999538574  0.5000000000000000
  0.5000000000000000  0.4999999999538574  0.0000000000000000
  0.0000000000000000 -0.0000000000000000  0.0000000000000000
  0.5000000000000000 -0.0000000000000000  0.5000000000000000
  0.8007417341359964  0.8057278837805810  0.4912318676990129
  0.1992582658640035  0.1942721161271270  0.5087681025091093
  0.6992582658640036  0.1942721161271270  0.9912318974908907
  0.3007417341359964  0.8057278837805810  0.0087681323009871
  0.1992582658640035  0.3057278838267232  0.0087681323009871
  0.8007417341359964  0.6942721161963477  0.9912318974908907
  0.3007417341359964  0.6942721161963477  0.5087681025091093
  0.6992582658640036  0.3057278838267232  0.4912318676990129
  0.9592638580669393  0.4744493995973645  0.6142581937513081
  0.0407361419330610  0.5255505706624281  0.3857418062486920
  0.5407361419330607  0.5255505706624281  0.1142581937513081
  0.4592638580669390  0.4744493995973645  0.8857418062486919
  0.0407361419330610  0.9744494293145006  0.8857418062486919
  0.9592638580669393  0.0255506004718494  0.1142581937513081
  0.4592638580669390  0.0255506004718494  0.3857418062486920
  0.5407361419330607  0.9744494293145006  0.6142581937513081
  0.5868286531839496  0.5640542040796247  0.5879591859693839
  0.4131713468160507  0.4359457959434472  0.4120408139956503
  0.9131713468160504  0.4359457959434472  0.0879591860043497
  0.0868286531839493  0.5640542040796247  0.9120408139956503
  0.4131713468160507  0.0640542040104031  0.9120408139956503
  0.5868286531839496  0.9359457960126677  0.0879591860043497
  0.0868286531839493  0.9359457960126677  0.4120408139956503
  0.9131713468160504  0.0640542040104031  0.5879591859693839
  0.5542132992086769  0.6772180238254067  0.5946846825678943
  0.4457867007913228  0.3227819761976641  0.4053153174321057
  0.9457867007913231  0.3227819761976641  0.0946846825678943
  0.0542132992086770  0.6772180238254067  0.9053153174321057
  0.4457867007913228  0.1772180237561932  0.9053153174321057
  0.5542132992086769  0.8227819762668785  0.0946846825678943
  0.0542132992086770  0.8227819762668785  0.4053153174321057
  0.9457867007913231  0.1772180237561932  0.5946846825678943
  0.5960164380651707  0.5500213441126233  0.5521400385943758
  0.4039835619348293  0.4499786559104485  0.4478599614056236
  0.9039835619348293  0.4499786559104485  0.0521400385943762
  0.0960164380651714  0.5500213441126233  0.9478599614056242
  0.4039835619348293  0.0500213440434087  0.9478599614056242
  0.5960164380651707  0.9499786559796620  0.0521400385943762
  0.0960164380651714  0.9499786559796620  0.4478599614056236
  0.9039835619348293  0.0500213440434087  0.5521400385943758
  0.6920399398080586  0.5491420035911606  0.6017221732269302
  0.3079600601919414  0.4508579964319109  0.3982778267730707
  0.8079600601919414  0.4508579964319109  0.1017221732269296
  0.1920399398080583  0.5491420035911606  0.8982778267730698
  0.3079600601919414  0.0491420035219467  0.8982778267730698
  0.6920399398080586  0.9508579965011247  0.1017221732269296
  0.1920399398080583  0.9508579965011247  0.3982778267730707
  0.8079600601919414  0.0491420035219467  0.6017221732269302
  0.6059054852205604  0.3349948508288385  0.6884810009390179
  0.3940945147794393  0.6650051491942328  0.3115189990609815
  0.8940945147794396  0.6650051491942328  0.1884810009390182
  0.1059054852205606  0.3349948508288385  0.8115189990609821
  0.3940945147794393  0.8349948507826959  0.8115189990609821
  0.6059054852205604  0.1650051492403752  0.1884810009390182
  0.1059054852205606  0.1650051492403752  0.3115189990609815
  0.8940945147794396  0.8349948507826959  0.6884810009390179
  0.5358780642417054  0.3959547375016979  0.7707294559183003
  0.4641219357582951  0.6040452625213738  0.2292705440816996
  0.9641219357582946  0.6040452625213738  0.2707294559183006
  0.0358780642417047  0.3959547375016979  0.7292705440816997
  0.4641219357582951  0.8959547374555549  0.7292705440816997
  0.5358780642417054  0.1040452625675232  0.2707294559183006
  0.0358780642417047  0.1040452625675232  0.2292705440816996
  0.9641219357582946  0.8959547374555549  0.7707294559183003
  0.3320731699965530  0.5775176840972388  0.7865388485927556
  0.6679268300034467  0.4224823158104762  0.2134611514072450
  0.1679268300034470  0.4224823158104762  0.2865388485927552
  0.8320731699965533  0.5775176840972388  0.7134611514072444
  0.6679268300034467  0.0775176841433810  0.7134611514072444
  0.3320731699965530  0.9224823158796899  0.2865388485927552
  0.8320731699965533  0.9224823158796899  0.2134611514072450
  0.1679268300034470  0.0775176841433810  0.7865388485927556
  0.2016828920236995  0.7054334206230951  0.7204283848075135
  0.7983171377235557  0.2945665793999758  0.2795716151924859
  0.2983171079763005  0.2945665793999758  0.2204283848075141
  0.7016828622764443  0.7054334206230951  0.7795716151924865
  0.7983171377235557  0.2054334206692381  0.7795716151924865
  0.2016828920236995  0.7945665793538336  0.2204283848075140
  0.7016828622764443  0.7945665793538336  0.2795716151924859
  0.2983171079763005  0.2054334206692381  0.7204283848075135
  0.2711395548011161  0.6450610984660677  0.6385496726501165
  0.7288604451988844  0.3549389015570035  0.3614503273498829
  0.2288604451988841  0.3549389015570035  0.1385496726501167
  0.7711395548011156  0.6450610984660677  0.8614503273498835
  0.7288604451988844  0.1450610983968539  0.8614503273498835
  0.2711395548011161  0.8549389016262176  0.1385496726501167
  0.7711395548011156  0.8549389016262176  0.3614503273498829
  0.2288604451988841  0.1450610983968539  0.6385496726501165
  0.5347940717820112  0.3337188231187024  0.6053044514710153
  0.4652059282179887  0.6662811769043692  0.3946955485289847
  0.9652059282179888  0.6662811769043692  0.1053044514710150
  0.0347940717820112  0.3337188231187024  0.8946955485289847
  0.4652059282179887  0.8337188230725595  0.8946955485289847
  0.5347940717820112  0.1662811769505119  0.1053044514710150
  0.0347940717820112  0.1662811769505119  0.3946955485289847
  0.9652059282179888  0.8337188230725595  0.6053044514710153
  0.3842687062074360  0.4476174870529321  0.5857231981402308
  0.6157313235398262  0.5523825129701392  0.4142768018597697
  0.1157312937925640  0.5523825129701392  0.0857231981402303
  0.8842686764601738  0.4476174870529321  0.9142768018597692
  0.6157313235398262  0.9476174870067824  0.9142768018597692
  0.3842687062074360  0.0523825130162891  0.0857231981402303
  0.8842686764601738  0.0523825130162891  0.4142768018597697
  0.1157312937925640  0.9476174870067824  0.5857231981402308
  0.4427638735500556  0.4854562904974318  0.6582137636103128
  0.5572360967026815  0.5145437095256460  0.3417862363896879
  0.0572361264499442  0.5145437095256460  0.1582137636103121
  0.9427639032973185  0.4854562904974318  0.8417862363896872
  0.5572360967026815  0.9854562905666464  0.8417862363896872
  0.4427638735500556  0.0145437094564255  0.1582137636103121
  0.9427639032973185  0.0145437094564255  0.3417862363896879
  0.0572361264499442  0.9854562905666464  0.6582137636103128
  0.5179586143384755  0.4168074370328906  0.6955865492012814
  0.4820413856615241  0.5831925928688217  0.3044134507987190
 -0.0179586143384758  0.5831925928688217  0.1955865492012810
  0.0179586143384758  0.4168074370328906  0.8044134507987186
  0.4820413856615241  0.9168074072234635  0.8044134507987186
  0.5179586143384755  0.0831925630363303  0.1955865492012810
  0.0179586143384758  0.0831925630363303  0.3044134507987190
 -0.0179586143384758  0.9168074072234635  0.6955865492012814
  0.4785494248654992  0.4506641218532695  0.7417469196320218
  0.5214505751345012  0.5493358781698016  0.2582530803679784
  0.0214505751345010  0.5493358781698016  0.2417469196320215
  0.9785494248654988  0.4506641218532695  0.7582530803679782
  0.5214505751345012  0.9506641218071271  0.7582530803679782
  0.4785494248654992  0.0493358781005876  0.2417469196320215
  0.9785494248654988  0.0493358781005876  0.2582530803679784
  0.0214505751345010  0.9506641218071271  0.7417469196320218
  0.3642827341892321  0.5537821815338337  0.7505664421946163
  0.6357172360635047  0.4462178183738804  0.2494335578053840
  0.1357172658107677  0.4462178183738804  0.2505664421946160
  0.8642827639364953  0.5537821815338337  0.7494335578053837
  0.6357172360635047  0.0537821815799766  0.7494335578053837
  0.3642827341892321  0.9462178184430949  0.2505664421946160
  0.8642827639364953  0.9462178184430949  0.2494335578053840
  0.1357172658107677  0.0537821815799766  0.7505664421946163
  0.2907274756960056  0.6251606397315499  0.7134980582182857
  0.7092725243039942  0.3748393602915282  0.2865019417817141
  0.2092725243039942  0.3748393602915282  0.2134980582182855
  0.7907274756960058  0.6251606397315499  0.7865019417817143
  0.7092725243039942  0.1251606397776930  0.7865019417817143
  0.2907274756960056  0.8748393602453788  0.2134980582182855
  0.7907274756960058  0.8748393602453788  0.2865019417817141
  0.2092725243039942  0.1251606397776930  0.7134980582182857
  0.3299127212135975  0.5912683974652641  0.6674623546169945
  0.6700872787864015  0.4087316025578080  0.3325376453830053
  0.1700872787864022  0.4087316025578080  0.1674623546169945
  0.8299127212135985  0.5912683974652641  0.8325376453830055
  0.6700872787864016  0.0912683975114059  0.8325376453830055
  0.3299127212135975  0.9087316025116646  0.1674623546169945
  0.8299127212135985  0.9087316025116646  0.3325376453830053
  0.1700872787864022  0.0912683975114059  0.6674623546169945
  0.4810615368832639  0.4463252874213759  0.6083672239114971
  0.5189384928639986  0.5536747126016950  0.3916327760885034
  0.0189384631167361  0.5536747126016950  0.1083672239114968
  0.9810615071360014  0.4463252874213759  0.8916327760885029
  0.5189384928639986  0.9463252874905974  0.8916327760885029
  0.4810615368832639  0.0536747125324813  0.1083672239114968
  0.9810615071360014  0.0536747125324813  0.3916327760885034
  0.0189384631167361  0.9463252874905974  0.6083672239114971
 
  0.00000000E+00  0.00000000E+00  0.00000000E+00
  0.00000000E+00  0.00000000E+00  0.00000000E+00
  0.00000000E+00  0.00000000E+00  0.00000000E+00
  0.00000000E+00  0.00000000E+00  0.00000000E+00
  0.00000000E+00  0.00000000E+00  0.00000000E+00
  0.00000000E+00  0.00000000E+00  0.00000000E+00
  0.00000000E+00  0.00000000E+00  0.00000000E+00
  0.00000000E+00  0.00000000E+00  0.00000000E+00
  0.00000000E+00  0.00000000E+00  0.00000000E+00
  0.00000000E+00  0.00000000E+00  0.00000000E+00
  0.00000000E+00  0.00000000E+00  0.00000000E+00
  0.00000000E+00  0.00000000E+00  0.00000000E+00
  0.00000000E+00  0.00000000E+00  0.00000000E+00
  0.00000000E+00  0.00000000E+00  0.00000000E+00
  0.00000000E+00  0.00000000E+00  0.00000000E+00
  0.00000000E+00  0.00000000E+00  0.00000000E+00
  0.00000000E+00  0.00000000E+00  0.00000000E+00
  0.00000000E+00  0.00000000E+00  0.00000000E+00
  0.00000000E+00  0.00000000E+00  0.00000000E+00
  0.00000000E+00  0.00000000E+00  0.00000000E+00
  0.00000000E+00  0.00000000E+00  0.00000000E+00
  0.00000000E+00  0.00000000E+00  0.00000000E+00
  0.00000000E+00  0.00000000E+00  0.00000000E+00
  0.00000000E+00  0.00000000E+00  0.00000000E+00
  0.00000000E+00  0.00000000E+00  0.00000000E+00
  0.00000000E+00  0.00000000E+00  0.00000000E+00
  0.00000000E+00  0.00000000E+00  0.00000000E+00
  0.00000000E+00  0.00000000E+00  0.00000000E+00
  0.00000000E+00  0.00000000E+00  0.00000000E+00
  0.00000000E+00  0.00000000E+00  0.00000000E+00
  0.00000000E+00  0.00000000E+00  0.00000000E+00
  0.00000000E+00  0.00000000E+00  0.00000000E+00
  0.00000000E+00  0.00000000E+00  0.00000000E+00
  0.00000000E+00  0.00000000E+00  0.00000000E+00
  0.00000000E+00  0.00000000E+00  0.00000000E+00
  0.00000000E+00  0.00000000E+00  0.00000000E+00
  0.00000000E+00  0.00000000E+00  0.00000000E+00
  0.00000000E+00  0.00000000E+00  0.00000000E+00
  0.00000000E+00  0.00000000E+00  0.00000000E+00
  0.00000000E+00  0.00000000E+00  0.00000000E+00
  0.00000000E+00  0.00000000E+00  0.00000000E+00
  0.00000000E+00  0.00000000E+00  0.00000000E+00
  0.00000000E+00  0.00000000E+00  0.00000000E+00
  0.00000000E+00  0.00000000E+00  0.00000000E+00
  0.00000000E+00  0.00000000E+00  0.00000000E+00
  0.00000000E+00  0.00000000E+00  0.00000000E+00
  0.00000000E+00  0.00000000E+00  0.00000000E+00
  0.00000000E+00  0.00000000E+00  0.00000000E+00
  0.00000000E+00  0.00000000E+00  0.00000000E+00
  0.00000000E+00  0.00000000E+00  0.00000000E+00
  0.00000000E+00  0.00000000E+00  0.00000000E+00
  0.00000000E+00  0.00000000E+00  0.00000000E+00
  0.00000000E+00  0.00000000E+00  0.00000000E+00
  0.00000000E+00  0.00000000E+00  0.00000000E+00
  0.00000000E+00  0.00000000E+00  0.00000000E+00
  0.00000000E+00  0.00000000E+00  0.00000000E+00
  0.00000000E+00  0.00000000E+00  0.00000000E+00
  0.00000000E+00  0.00000000E+00  0.00000000E+00
  0.00000000E+00  0.00000000E+00  0.00000000E+00
  0.00000000E+00  0.00000000E+00  0.00000000E+00
  0.00000000E+00  0.00000000E+00  0.00000000E+00
  0.00000000E+00  0.00000000E+00  0.00000000E+00
  0.00000000E+00  0.00000000E+00  0.00000000E+00
  0.00000000E+00  0.00000000E+00  0.00000000E+00
  0.00000000E+00  0.00000000E+00  0.00000000E+00
  0.00000000E+00  0.00000000E+00  0.00000000E+00
  0.00000000E+00  0.00000000E+00  0.00000000E+00
  0.00000000E+00  0.00000000E+00  0.00000000E+00
  0.00000000E+00  0.00000000E+00  0.00000000E+00
  0.00000000E+00  0.00000000E+00  0.00000000E+00
  0.00000000E+00  0.00000000E+00  0.00000000E+00
  0.00000000E+00  0.00000000E+00  0.00000000E+00
  0.00000000E+00  0.00000000E+00  0.00000000E+00
  0.00000000E+00  0.00000000E+00  0.00000000E+00
  0.00000000E+00  0.00000000E+00  0.00000000E+00
  0.00000000E+00  0.00000000E+00  0.00000000E+00
  0.00000000E+00  0.00000000E+00  0.00000000E+00
  0.00000000E+00  0.00000000E+00  0.00000000E+00
  0.00000000E+00  0.00000000E+00  0.00000000E+00
  0.00000000E+00  0.00000000E+00  0.00000000E+00
  0.00000000E+00  0.00000000E+00  0.00000000E+00
  0.00000000E+00  0.00000000E+00  0.00000000E+00
  0.00000000E+00  0.00000000E+00  0.00000000E+00
  0.00000000E+00  0.00000000E+00  0.00000000E+00
  0.00000000E+00  0.00000000E+00  0.00000000E+00
  0.00000000E+00  0.00000000E+00  0.00000000E+00
  0.00000000E+00  0.00000000E+00  0.00000000E+00
  0.00000000E+00  0.00000000E+00  0.00000000E+00
  0.00000000E+00  0.00000000E+00  0.00000000E+00
  0.00000000E+00  0.00000000E+00  0.00000000E+00
  0.00000000E+00  0.00000000E+00  0.00000000E+00
  0.00000000E+00  0.00000000E+00  0.00000000E+00
  0.00000000E+00  0.00000000E+00  0.00000000E+00
  0.00000000E+00  0.00000000E+00  0.00000000E+00
  0.00000000E+00  0.00000000E+00  0.00000000E+00
  0.00000000E+00  0.00000000E+00  0.00000000E+00
  0.00000000E+00  0.00000000E+00  0.00000000E+00
  0.00000000E+00  0.00000000E+00  0.00000000E+00
  0.00000000E+00  0.00000000E+00  0.00000000E+00
  0.00000000E+00  0.00000000E+00  0.00000000E+00
  0.00000000E+00  0.00000000E+00  0.00000000E+00
  0.00000000E+00  0.00000000E+00  0.00000000E+00
  0.00000000E+00  0.00000000E+00  0.00000000E+00
  0.00000000E+00  0.00000000E+00  0.00000000E+00
  0.00000000E+00  0.00000000E+00  0.00000000E+00
  0.00000000E+00  0.00000000E+00  0.00000000E+00
  0.00000000E+00  0.00000000E+00  0.00000000E+00
  0.00000000E+00  0.00000000E+00  0.00000000E+00
  0.00000000E+00  0.00000000E+00  0.00000000E+00
  0.00000000E+00  0.00000000E+00  0.00000000E+00
  0.00000000E+00  0.00000000E+00  0.00000000E+00
  0.00000000E+00  0.00000000E+00  0.00000000E+00
  0.00000000E+00  0.00000000E+00  0.00000000E+00
  0.00000000E+00  0.00000000E+00  0.00000000E+00
  0.00000000E+00  0.00000000E+00  0.00000000E+00
  0.00000000E+00  0.00000000E+00  0.00000000E+00
  0.00000000E+00  0.00000000E+00  0.00000000E+00
  0.00000000E+00  0.00000000E+00  0.00000000E+00
  0.00000000E+00  0.00000000E+00  0.00000000E+00
  0.00000000E+00  0.00000000E+00  0.00000000E+00
  0.00000000E+00  0.00000000E+00  0.00000000E+00
  0.00000000E+00  0.00000000E+00  0.00000000E+00
  0.00000000E+00  0.00000000E+00  0.00000000E+00
  0.00000000E+00  0.00000000E+00  0.00000000E+00
  0.00000000E+00  0.00000000E+00  0.00000000E+00
  0.00000000E+00  0.00000000E+00  0.00000000E+00
  0.00000000E+00  0.00000000E+00  0.00000000E+00
  0.00000000E+00  0.00000000E+00  0.00000000E+00
  0.00000000E+00  0.00000000E+00  0.00000000E+00
  0.00000000E+00  0.00000000E+00  0.00000000E+00
  0.00000000E+00  0.00000000E+00  0.00000000E+00
  0.00000000E+00  0.00000000E+00  0.00000000E+00
  0.00000000E+00  0.00000000E+00  0.00000000E+00
  0.00000000E+00  0.00000000E+00  0.00000000E+00
  0.00000000E+00  0.00000000E+00  0.00000000E+00
  0.00000000E+00  0.00000000E+00  0.00000000E+00
  0.00000000E+00  0.00000000E+00  0.00000000E+00
  0.00000000E+00  0.00000000E+00  0.00000000E+00
  0.00000000E+00  0.00000000E+00  0.00000000E+00
  0.00000000E+00  0.00000000E+00  0.00000000E+00
  0.00000000E+00  0.00000000E+00  0.00000000E+00
  0.00000000E+00  0.00000000E+00  0.00000000E+00
  0.00000000E+00  0.00000000E+00  0.00000000E+00
  0.00000000E+00  0.00000000E+00  0.00000000E+00
  0.00000000E+00  0.00000000E+00  0.00000000E+00
  0.00000000E+00  0.00000000E+00  0.00000000E+00
  0.00000000E+00  0.00000000E+00  0.00000000E+00
  0.00000000E+00  0.00000000E+00  0.00000000E+00
  0.00000000E+00  0.00000000E+00  0.00000000E+00
  0.00000000E+00  0.00000000E+00  0.00000000E+00
  0.00000000E+00  0.00000000E+00  0.00000000E+00
  0.00000000E+00  0.00000000E+00  0.00000000E+00
  0.00000000E+00  0.00000000E+00  0.00000000E+00
  0.00000000E+00  0.00000000E+00  0.00000000E+00
  0.00000000E+00  0.00000000E+00  0.00000000E+00
  0.00000000E+00  0.00000000E+00  0.00000000E+00
  0.00000000E+00  0.00000000E+00  0.00000000E+00
  0.00000000E+00  0.00000000E+00  0.00000000E+00
  0.00000000E+00  0.00000000E+00  0.00000000E+00
  0.00000000E+00  0.00000000E+00  0.00000000E+00
  0.00000000E+00  0.00000000E+00  0.00000000E+00
  0.00000000E+00  0.00000000E+00  0.00000000E+00
  0.00000000E+00  0.00000000E+00  0.00000000E+00
  0.00000000E+00  0.00000000E+00  0.00000000E+00
